LLZO_Ia3d_partial_17                    
   1.00000000000000     
    12.9652004242000007    0.0000000000000000    0.0000000000000000
     0.0000000000000000   12.9650001526000000    0.0000000000000000
     0.0000000000000000    0.0000000000000000   12.9650001526000000
   O    La   Zr   Li   Al
    96    24    16    50     2
Direct
  0.1023519297374346  0.1954463645603099  0.2911262194041036
  0.8729136118463617  0.8065950001318140  0.7696993851839841
  0.3845817124299543  0.8141207489363751  0.7949292009235623
  0.5927481331457950  0.2019797178052396  0.2573315004630363
  0.9122830453934284  0.6949898537994742  0.2133227681652919
  0.1007252570103670  0.3307834248151117  0.7700708438058407
  0.5945502284790877  0.3424627370797281  0.7015187539468416
  0.3968562010901960  0.7003625351095267  0.2887024794958190
  0.2736313351809649  0.0881523723344394  0.1940781327586434
  0.6692350097346033  0.9027551177393262  0.7966927613243063
  0.7824402325545605  0.4067987028432080  0.8168938543170615
  0.2325593092811291  0.6005733160576880  0.2133623195541225
  0.1945223871549707  0.8907395377903908  0.6912936308589499
  0.7903959210103250  0.0784090857142814  0.2809535850964474
  0.7243684681680397  0.5799414401440057  0.3098164323744386
  0.2803702868083791  0.4178524962428929  0.6954686582119998
  0.1834776515038287  0.2856402080553638  0.0915238425954247
  0.7579838242959210  0.7158831451796253  0.9074080755078066
  0.8136991871861238  0.7922945330932328  0.3721123029273418
  0.2023839851317968  0.2237917519708009  0.5777688493793233
  0.6752579717880323  0.2227549096615182  0.8896066288426149
  0.3033193651289484  0.7988328862237852  0.1293361450451259
  0.3302507241623990  0.7035938144241425  0.6184130476835826
  0.7131027980801692  0.2664249763836842  0.3824706658555554
  0.9444993325094074  0.3558863390957037  0.9694845958492464
  0.0716929593918796  0.6621687154903891  0.0339005144312721
  0.5516679720589747  0.6491925032059919  0.4680743284919913
  0.4198150717329702  0.3402793083120504  0.5281574250863826
  0.4417352291603648  0.1487085993657706  0.0207924131802659
  0.5678521457824840  0.8604387165244050  1.0179391499975954
  0.0475985686205030  0.8626278629207059  0.5437617248958415
  0.9321937189180824  0.1668551960879343  0.4651681533607676
  0.8414685996423527  0.5436046371424132  0.0512344571717185
  0.1635362854372660  0.4978150587887573  0.9230558299303732
  0.1612671624071362  0.0422910034946702  0.4497319682662168
  0.8528337892530755  0.9749256963638344  0.5403479525532549
  0.6613196652966969  0.4899278589062485  0.5170432111267369
  0.3649980786435694  0.5418174195888538  0.4223777861285590
  0.3415320487238371  0.9649915948397734  0.9500353509076792
  0.6372207747561979  0.0665276413331865  0.0659537731020729
  0.0578515554954414  0.4445245080905035  0.1541144334509110
  0.9672687521969162  0.5678115590504723  0.8636067250255469
  0.5348451905917696  0.0753234898905188  0.8485906236278680
  0.4496168904374876  0.9803229048121567  0.1615205545799449
  0.9788953386899863  0.9531523186943841  0.3609714991036609
  0.0517398625478847  0.0958232672878308  0.6332236669525688
  0.4899530559075593  0.5535852989123550  0.6213861125501243
  0.5341645417723198  0.4308749851162363  0.3332106876384881
  0.5788711695709609  0.7063689339035500  0.7574048655656516
  0.3966867852590819  0.2862783918801671  0.2305133326669942
  0.9017132949430358  0.3083153011433912  0.2544313220145790
  0.1006627330699909  0.7047279220108749  0.7167279203219971
  0.3871054617223376  0.1933458131371373  0.7194927752790756
  0.6065520823060468  0.7931174081456037  0.2779944926893623
  0.1028932620899816  0.7980355097351659  0.2293286216818944
  0.8919740674706862  0.1947340340315936  0.7626052230298723
  0.7833852266038874  0.6024146037310278  0.6870248674754933
  0.2397730151963531  0.3978690943079534  0.2991144471453855
  0.2540479974768440  0.8956744945617549  0.3343051589490277
  0.7155237885720864  0.1075750229976738  0.6850555234919397
  0.7157500522725558  0.3777059733829251  0.1791726165129029
  0.2951745332538694  0.6047854059765339  0.8209078627561084
  0.2089167369956196  0.1022781000185617  0.7918288174124375
  0.7727352636531789  0.8849277445801879  0.2033321701174939
  0.7245175447027521  0.7902849840559758  0.5916983988735824
  0.2935383900398755  0.1918045215965367  0.3957075379076673
  0.2639523098828583  0.2990616733167128  0.8866966211624284
  0.6940847564526478  0.7132392980843385  0.0960054700480999
  0.1864260768994805  0.7019610888535178  0.4168757892412259
  0.7806109590134115  0.3035017410268002  0.6119134773060505
  0.8139254062872007  0.2028052589769163  0.0936019641992545
  0.1892004282425223  0.7898188548026943  0.9158894378372393
  0.4298037405159854  0.8630814923153227  0.4830361843956062
  0.5581078819565550  0.1582674171879629  0.5227595665622056
  0.0659929094022208  0.1544276784704241  0.9722944220150980
  0.9569271235240188  0.8613073335708767  0.0434763587581993
  0.9538536838804659  0.6417726433108187  0.5360763138234960
  0.0401815666993861  0.3439641565375051  0.4655097133283199
  0.5414549722817633  0.3345695710531885  0.0387480326042305
  0.4337814661458272  0.6526826339320100  0.9944160414370514
  0.3416020048270383  0.0411766118242776  0.5697971691627759
  0.6338370919155996  0.9686942102823723  0.4507792861857219
  0.6481833326880744  0.5134769068546506  0.9453786573686948
  0.3432080732576956  0.4701428282712122  0.0520520647981640
  0.1524656716251143  0.9702959568860446  0.0159262127621833
  0.8605702185636860  0.0385203849507750  0.9508977009644970
  0.8601261931993978  0.4506511403769107  0.4335564875671625
  0.1445769666744963  0.5141419928454642  0.5457996811060670
  0.5283893330202166  0.9867212477099013  0.6617330946741292
  0.4552257482214454  0.0401864617739709  0.3396163696294843
  0.0438882797559483  0.5354424237852499  0.3500077069084739
  0.9557674064537856  0.4562333649042603  0.6616147878577535
  0.4632203428252764  0.4503547321634183  0.8519084746866263
  0.5573948558974029  0.5578838052548887  0.1545390491899892
  0.9818915519420730  0.0495308809214629  0.1482743784493087
  0.0239336790787584  0.9357272046553684  0.8390705702214716
  0.1037520685689879  1.0123336359575406  0.2706320614936337
  0.8596104562180630  0.0133722680362085  0.7633118972794563
  0.3646911979864081 -0.0007227739243573  0.7673658824332557
  0.6305361101836390 -0.0024204449927691  0.2748670554237945
  0.8769714783408143  0.5002403734353288  0.2563152058069219
  0.1406340385771296  0.5041656102838349  0.7428053046063149
  0.6052242843842037  0.5130493076309052  0.7644958635654239
  0.3883521420775437  0.4967753257403563  0.2442546812203506
  0.2457321581616094  0.1423856104146298 -0.0318581233229236
  0.7648178026954074  0.8782159038142058  0.0065720301218351
  0.7320228987332782  0.3745398116118572  0.0096372271714829
  0.2428867767949570  0.6147735604061689  1.0128877785375394
  0.2236724142466134  0.8560779936172093  0.5147305867710685
  0.7426396809428250  0.1285436415283726  0.4937950708478584
  0.7558841927518538  0.6094194336771388  0.4821659341267148
  0.2483714515911501  0.3858850928600279  0.4913518129206140
  0.9948215668645618  0.2467690921284101  0.1274863694076715
  1.0140659977166424  0.7674200853955546  0.8797373179242729
  0.0020861014942426  0.7547587730252833  0.3802687741582501
  0.9976211653192715  0.2624795409707300  0.6304671716922311
  0.5058252686693946  0.2582922151513132  0.8651031509680025
  0.4907964514113796  0.7511363678676185  0.1356386842182659
  0.5063001294027962  0.7398729560307380  0.6181719616179226
  0.4804155604265417  0.2437294414195263  0.3727008886164681
  0.0152206658110145  1.0081164684500104 -0.0061586425164707
  0.4829600542514859  0.0042325659128012  0.4978363921985642
  1.0009521054344985  0.4906159278685581  0.5094848498803402
  0.4921965670324762  0.5009032915583542  0.0109419796790305
  0.7427526800939563  0.2372628781035208  0.2342029756157256
  0.2480790006204622  0.7539728711266527  0.7699040396366528
  0.7415201087092246  0.7518958747072535  0.7407221876828762
  0.2480104396269512  0.2391520759960664  0.2386735496688933
  0.2379959731252850  0.2501001065383506  0.7318813322254492
  0.7520418244931937  0.7269447018088941  0.2407728038255705
  0.2642985787644732  0.7545675836316694  0.2670974236572218
  0.7553789539190650  0.2679057810159924  0.7471755917527552
  0.4977135887396870  0.4872249996264968  0.4802438128823667
  0.0055823208040106  0.5023370899574888 -0.0022663590149862
  0.4998599432462704  1.0078686275295210  1.0189793912172886
  1.0081340260337153  0.0071655456222833  0.5155409052843374
  0.4007984508641319  0.9065949082853088  0.3181394510548396
  0.0789311547324702  0.6846268266981880  0.5812307071276307
  0.9084592568224757  0.8474926901101805  0.1811506258855537
  0.8936992837378233  0.3068140921082433  0.4077028701832994
  0.7410298163259661  0.8509078661715934  0.4576471758100986
  0.2568979532316480  0.6041730749924976  0.5430500959489989
  0.6785808350897331  0.9349027943583947  0.6091332870739549
  0.6250217863460413  0.7254783362024265  0.9829009546789637
  0.7409706728528127  0.3698857537191386  0.5126566059498898
 -0.1422099801913069  0.8082637199684060  0.5947419700265645
  0.8126026009998185  0.4439581405443987  0.6619344912808466
  0.2119280109105028 -0.0884703483326187  0.8844561744842161
  0.8197324976373094  0.9439620708673830  0.3233682895382025
  0.6116455256844612  0.3118202109245377  0.5551809379095182
  0.6778061027742370  0.4160095138069461  0.3530006115364193
  0.7083707722838090  0.5584707977103025  1.0714804800635351
  0.3317220972773720  0.5489039425870947  0.6893253171982542
  0.3154146159630121  0.0636260530803647  0.3344483170085674
  0.8499125609636554  0.0570040666987215  0.1504471479788659
  0.5748066964440323  0.6156763125794388  0.2863295440401703
  0.1755326969861697  0.5741079611180454  0.3494956787394494
  0.0875563908646460  0.4021618205244760  0.2738870481331644
  0.2005943333922872  0.3954223381632563  0.0014704721416674
  0.5688144926692199  0.4034014727959259  0.1720736980637310
  0.4241847161860817  0.1031756006773577  0.2020623470222217
  0.4570690330489223  0.2147779892787478  0.5990925577976339
  0.3283481450014547  0.8313717594316610 -0.0110903559765687
  1.1790423606489728  0.4697446179883196  0.1995545789741047
  0.9347482846304297  0.6371644234570445  0.7069670578485120
  0.9058893778912104  0.1873217133980666  0.9115432452147816
  0.7376340529239659  0.1400597173262070  0.9880306216744903
  1.0636180461232219 -0.1498862510037566  0.6803051455767978
  0.0835888089632242  0.8269491566042707  1.0831576756570180
  0.4128989403115648  0.2917031808840359  0.0822481563786513
  0.5800139005283089  0.1942921625184177  0.0869341272033799
  0.5606466067542114  0.8256096056781741  0.8497513874656043
  0.4481664516431549  0.6723605785808630  0.8639039364357288
  0.0534156990532886  0.2686233685989483 -0.1078496242212875
  0.9378708431999571  0.1116254796469205  0.3202334949979284
  0.1091553771543023  0.0185761442101963  0.7438418559543379
  0.9240961746533457  0.3897385964258487  0.8268497939974295
  0.4123787620079982  0.3456228916161470  0.6660021425400453
  0.5585091350161939  0.7852849226993750  0.4040578756425393
  0.3254268339149693  0.4626194418855450 -0.1579548555759189
  0.8236731209850534  0.5920394623212419  0.9035024119063056
  0.2780354057102141  0.9703168015100135  0.1184368894470049
  0.0949191773271098  0.6331095930679412  0.1902183387705913
  0.1007288007589544  0.2200948667675827  0.4228456441396655
  0.8423407163771111  0.7141811019707968  1.0421422977157806
  1.4026985759731081  0.6933897854094979  0.4295762121281643
  0.6187796598228841  1.0275312322939920  0.7555074797065674
  0.2552464047106973  0.1324547524268616  0.5078964067309905
 
 -0.55639681E-02  0.15755912E-02  0.31060378E-04
 -0.18093181E-01  0.47305445E-02  0.20604494E-02
 -0.72622073E-02  0.30214480E-02  0.11214947E-01
  0.36737662E-02  0.69799863E-02 -0.65940465E-02
 -0.40614819E-02  0.39717209E-02  0.11338937E-01
  0.92264785E-05  0.68977799E-02 -0.90889007E-02
 -0.23648421E-02 -0.58943424E-02  0.14696287E-02
 -0.45002265E-02  0.52162356E-02  0.17728839E-02
 -0.54881652E-02  0.63548989E-02  0.15617091E-01
  0.30108430E-02 -0.74689082E-02 -0.11224323E-01
 -0.47479340E-02  0.68689372E-02 -0.26102518E-02
 -0.65923767E-02  0.10936462E-01 -0.80052500E-02
 -0.86246867E-02  0.12207298E-01 -0.70153493E-03
 -0.76009103E-02 -0.45246874E-02  0.88696956E-03
  0.60383910E-02 -0.62656944E-02  0.72551032E-03
 -0.13207204E-01  0.16148991E-02 -0.71611018E-02
  0.15981606E-01  0.14372680E-01 -0.10118574E-01
 -0.49027597E-02  0.38039415E-02  0.14848992E-01
  0.73003531E-03 -0.73562255E-02  0.11612123E-01
  0.22427434E-02  0.18387189E-02 -0.31486191E-02
 -0.11829421E-02 -0.12843817E-01  0.67331279E-02
  0.70094702E-02  0.11154499E-01 -0.93933219E-02
 -0.12255746E-01  0.71637366E-02 -0.10268008E-01
 -0.10255690E-01  0.83016889E-02  0.15189412E-01
 -0.53648738E-02 -0.11254667E-01 -0.76104940E-02
  0.15657876E-01  0.79635899E-02 -0.93719116E-02
  0.98324421E-02  0.37239096E-02  0.29292897E-02
 -0.23885839E-02  0.99866671E-03  0.19675155E-02
 -0.88052502E-02 -0.95483650E-02 -0.68707231E-02
 -0.99208581E-02 -0.60558968E-02  0.32352727E-01
 -0.74457392E-02 -0.14030420E-01 -0.42039729E-02
 -0.11118365E-01  0.99903405E-02  0.69861893E-02
  0.23798235E-02 -0.73810374E-03 -0.25792516E-02
 -0.33097924E-02 -0.47794062E-02 -0.56938561E-02
 -0.80590581E-02 -0.11211868E-01  0.24504117E-02
  0.12300578E-02 -0.46553712E-02  0.40592215E-02
 -0.11359833E-01 -0.24591463E-02  0.93014003E-02
  0.33987143E-02  0.13216091E-01 -0.15447444E-01
  0.12164902E-01  0.13583958E-01  0.35679012E-02
 -0.11415960E-01  0.22915869E-02  0.26265082E-02
 -0.19423895E-01  0.13381394E-01 -0.86257282E-02
  0.85077174E-03  0.76781815E-02  0.18226942E-01
  0.54992092E-03  0.46495724E-02  0.16390570E-01
  0.11788681E-02 -0.14858021E-01 -0.98759026E-02
  0.94143827E-02 -0.16534599E-01 -0.21699933E-02
  0.38569307E-02 -0.31459629E-02 -0.47242788E-02
  0.10632678E-01 -0.50053849E-02 -0.27418806E-02
  0.51000419E-02 -0.20524152E-02 -0.20735383E-03
  0.19670762E-02 -0.11088847E-01  0.13884370E-01
  0.35571911E-02  0.78630509E-02  0.59625419E-02
  0.18799755E-01  0.37734925E-02  0.82641020E-02
 -0.40859754E-02 -0.10547940E-01  0.49520665E-02
 -0.45124962E-02 -0.13152849E-03  0.74695786E-02
 -0.11376155E-02  0.11411672E-01  0.13429567E-01
 -0.59469660E-03  0.12734855E-01 -0.12041486E-01
  0.92459697E-02  0.18393747E-01 -0.22635143E-01
 -0.28463010E-02 -0.84745239E-02 -0.28243963E-02
  0.50491265E-02 -0.17618059E-02  0.33770699E-02
  0.86138240E-02  0.11693352E-01 -0.56884910E-02
 -0.10825251E-01 -0.13766092E-01  0.12707331E-01
  0.21925274E-01  0.69717677E-02  0.69859928E-02
  0.79306683E-02  0.51274083E-02 -0.10938464E-01
  0.32017663E-01 -0.43715510E-02 -0.29497835E-02
 -0.67019696E-02 -0.11519794E-01 -0.59750657E-02
 -0.43987874E-02 -0.15018766E-02 -0.35080459E-02
  0.10368101E-01  0.17982046E-01  0.76549346E-02
  0.68460164E-02 -0.62692832E-02  0.32433833E-02
  0.65136312E-02  0.20852248E-01 -0.25281817E-01
 -0.49499597E-02 -0.18604775E-02  0.41556090E-02
 -0.14773951E-01  0.78080758E-02 -0.26179570E-01
  0.41838839E-02 -0.26427545E-02 -0.33612652E-02
  0.50108031E-02 -0.13591139E-01 -0.27777745E-02
  0.50871054E-02 -0.26392980E-02  0.13181150E-01
  0.17798827E-01  0.62316521E-02 -0.10902438E-01
 -0.32286604E-03 -0.16439044E-01  0.11706300E-01
 -0.10369697E-01  0.10077560E-01 -0.65386006E-02
 -0.10384684E-02  0.14821027E-01 -0.96450320E-02
 -0.36912225E-02 -0.64601117E-02  0.10945298E-01
  0.28408687E-03  0.15451284E-02 -0.10904526E-01
  0.94134777E-02  0.77066629E-02 -0.63353601E-02
 -0.10942932E-01 -0.13947433E-02  0.16789690E-01
 -0.11263192E-01 -0.84990680E-02 -0.18374537E-02
 -0.41492537E-02 -0.20403449E-02 -0.50468075E-02
 -0.15481427E-01 -0.19469963E-01 -0.17291340E-01
 -0.32228734E-02  0.13667110E-01  0.27652307E-02
  0.23074882E-01  0.15081508E-01  0.10102999E-01
 -0.98190044E-03  0.69140341E-02  0.52445253E-02
  0.31261073E-02  0.19114185E-01  0.48027668E-02
 -0.46595544E-02  0.15283200E-01  0.93023238E-02
  0.11571834E-02  0.16578889E-01  0.11257043E-01
  0.48453306E-02  0.12856485E-01 -0.15708253E-01
  0.89359877E-02 -0.86388366E-02  0.50248394E-02
  0.45174302E-02 -0.11402541E-01 -0.42630349E-02
 -0.43288169E-02 -0.13427836E-01  0.14382950E-01
 -0.12467085E-01  0.39897645E-02 -0.48440503E-02
  0.98867810E-02 -0.25258525E-03  0.55733723E-02
  0.13629483E-02 -0.30977294E-03 -0.13403520E-02
 -0.80000216E-04  0.45895228E-02  0.15479890E-02
  0.92506198E-02 -0.47136690E-02  0.36587984E-02
 -0.22900341E-02  0.14278431E-02 -0.46900685E-02
 -0.19111357E-02  0.21769457E-02 -0.33875838E-02
 -0.21296165E-02 -0.16704828E-03 -0.29455162E-02
  0.31187360E-02 -0.57035269E-03 -0.14528445E-02
  0.17489044E-02 -0.13655553E-02  0.16520622E-02
  0.14213680E-02 -0.14363204E-02 -0.10500016E-02
  0.60044046E-02  0.33324667E-02  0.80027276E-04
  0.11368259E-03  0.23361091E-02 -0.33846275E-02
 -0.29985781E-02 -0.15205366E-02  0.45444606E-02
  0.17285019E-02  0.20076061E-02 -0.28120071E-02
  0.35567796E-02 -0.42841500E-02  0.38567395E-03
 -0.15449650E-02 -0.12573228E-02 -0.96260879E-03
 -0.26592006E-03 -0.45585868E-02  0.15921339E-02
 -0.47197717E-02 -0.73380000E-02 -0.52005250E-02
 -0.47481980E-02  0.56569662E-02  0.63214938E-04
 -0.58544472E-02  0.12909450E-03  0.25910288E-02
  0.48261531E-03 -0.26477536E-02  0.64007532E-02
  0.29554965E-02  0.32734757E-02  0.21444608E-03
 -0.17324414E-02 -0.50563000E-02 -0.96129208E-03
 -0.38543488E-03  0.29799927E-02 -0.30543002E-02
 -0.21438402E-02 -0.29194753E-03  0.37176547E-02
 -0.75115818E-02  0.12326104E-02  0.10682728E-02
  0.47680217E-02  0.51535095E-02  0.56165443E-02
  0.20217873E-02 -0.49816249E-02  0.31400855E-03
 -0.41719648E-03 -0.65786796E-02 -0.54039115E-03
 -0.70314534E-03  0.59921525E-03 -0.35996745E-03
 -0.47200945E-02 -0.16767193E-02  0.13755167E-03
 -0.23515082E-02  0.30134495E-02 -0.92808313E-03
  0.25618217E-03 -0.22155758E-02  0.80006980E-02
 -0.70783930E-02 -0.25836494E-02 -0.21550133E-02
  0.80604977E-02  0.81065804E-03  0.11911220E-03
 -0.24046236E-02  0.12913569E-02  0.23154232E-02
 -0.31038747E-02 -0.23431692E-02  0.23713896E-02
  0.14368557E-02  0.12740993E-02  0.10623244E-02
  0.50226734E-02  0.32329491E-02  0.20787874E-04
 -0.66784571E-03 -0.14255661E-03 -0.46725158E-02
 -0.50722714E-02 -0.40951647E-02 -0.86430361E-03
  0.95197715E-02 -0.22154512E-01 -0.15368967E-01
 -0.49418233E-02 -0.56918540E-02 -0.79185447E-02
 -0.21828478E-02 -0.13739644E-02  0.18042651E-01
  0.29539512E-01 -0.15818232E-01 -0.17034709E-01
  0.14165152E-02 -0.21137167E-02  0.18742637E-01
  0.34229730E-01  0.17586340E-03  0.13740706E-02
  0.33447737E-02  0.98762526E-02 -0.43541272E-02
  0.63652158E-02  0.31268193E-02 -0.94389097E-02
  0.12436919E-01  0.77113071E-02 -0.74260921E-02
 -0.21205364E-01 -0.21122686E-01 -0.10154465E-01
  0.44002213E-02 -0.10014588E-01  0.52539350E-04
 -0.13347136E-01 -0.72634297E-02  0.20164737E-02
  0.21584088E-01 -0.14784866E-01 -0.25499643E-01
  0.78509030E-02 -0.35192218E-02 -0.24955749E-01
  0.41889396E-02 -0.43138861E-02 -0.96834710E-02
 -0.14376911E-01  0.59167384E-02 -0.67298110E-02
  0.14694610E-01 -0.84952659E-02  0.55096011E-02
  0.79428544E-02 -0.15905300E-02  0.11672764E-01
  0.62122638E-03  0.32542312E-02  0.13218069E-01
  0.26529458E-01 -0.29687724E-01 -0.29264411E-01
  0.16363866E-01  0.13027843E-01 -0.27374314E-02
  0.82338025E-02  0.30539026E-03 -0.36724820E-02
 -0.11531140E-01 -0.16743590E-01 -0.44883606E-02
  0.17708911E-01 -0.97634231E-02  0.10564833E-01
  0.11602130E-01  0.51009807E-02  0.23398216E-02
 -0.60315515E-02 -0.69440274E-02  0.27839946E-02
 -0.83555052E-03 -0.36610178E-02 -0.48999700E-02
 -0.78101681E-02  0.21818382E-01  0.13947964E-01
 -0.86383232E-02  0.17399358E-01 -0.12225007E-01
 -0.94010744E-02 -0.14979470E-01  0.82096935E-02
 -0.22771269E-01 -0.68519852E-02  0.55059466E-02
  0.15969982E-01  0.10446061E-01 -0.16092076E-01
  0.11728557E-01  0.48772692E-02  0.22133306E-01
  0.31585534E-02  0.11903539E-01  0.56537652E-02
  0.47668050E-02 -0.24085842E-02  0.57782752E-02
 -0.26394483E-01  0.13068839E-01  0.16717500E-01
 -0.15896569E-02  0.11176002E-01 -0.18184009E-01
  0.20727144E-02  0.11943471E-01  0.67710836E-02
  0.12096009E-01  0.12853875E-01  0.14146739E-01
  0.12326427E-01 -0.77446121E-02  0.12650026E-01
 -0.60067218E-02 -0.35347250E-01 -0.71786057E-02
 -0.11134569E-01  0.51318027E-02  0.15319981E-01
  0.11427979E-01  0.18199338E-01 -0.41513701E-03
  0.49879966E-02 -0.25855654E-03  0.35467301E-02
  0.73713767E-03 -0.21498161E-01  0.21040245E-02
 -0.49217067E-02 -0.32594159E-01  0.21340993E-02
 -0.17911872E-01  0.14526728E-01 -0.12734619E-01
  0.34337939E-02  0.86442270E-02 -0.42491049E-02
  0.81795510E-02  0.59536565E-02  0.66652559E-02
 -0.13850168E-01  0.89100673E-02  0.10270425E-01
  0.70259030E-02  0.53236735E-02 -0.71513370E-02
  0.26353652E-02  0.25475540E-02 -0.21444714E-01
 
           1
   2.00000000000000     
 -0.59517247E+00  0.41989337E-02  0.27532406E-02 -0.59864856E+00
  0.10149364E+00  0.19568942E+00  0.29113101E+00
  0.87012257E+00  0.80732474E+00  0.77001723E+00
  0.38346145E+00  0.81458684E+00  0.79665924E+00
  0.59331484E+00  0.20305646E+00  0.25631429E+00
  0.91165652E+00  0.69560254E+00  0.21507193E+00
  0.10072668E+00  0.33184749E+00  0.76866878E+00
  0.59418543E+00  0.34155347E+00  0.70174546E+00
  0.39616200E+00  0.70116720E+00  0.28897597E+00
  0.27278474E+00  0.89132688E-01  0.19648725E+00
  0.66969946E+00  0.90160295E+00  0.79496128E+00
  0.78170782E+00  0.40785832E+00  0.81649119E+00
  0.23154238E+00  0.60226039E+00  0.21212742E+00
  0.19319195E+00  0.89262265E+00  0.69118541E+00
  0.78922341E+00  0.77711101E-01  0.28109041E+00
  0.72529994E+00  0.57897488E+00  0.30992835E+00
  0.27833296E+00  0.41810161E+00  0.69436398E+00
  0.18594296E+00  0.28785736E+00  0.89962937E-01
  0.75722753E+00  0.71646995E+00  0.90969870E+00
  0.81381180E+00  0.79115975E+00  0.37390361E+00
  0.20272995E+00  0.22407540E+00  0.57728314E+00
  0.67507549E+00  0.22077360E+00  0.89064529E+00
  0.30440064E+00  0.80055360E+00  0.12788712E+00
  0.32836016E+00  0.70469890E+00  0.61682909E+00
  0.71152076E+00  0.26770561E+00  0.38481381E+00
  0.94367175E+00  0.35415018E+00  0.96831059E+00
  0.74108329E-01  0.66339719E+00  0.32454790E-01
  0.55318472E+00  0.64976696E+00  0.46852621E+00
  0.41944661E+00  0.34043336E+00  0.52846094E+00
  0.44037694E+00  0.14723565E+00  0.19732525E-01
  0.56632176E+00  0.85950452E+00  0.22929929E-01
  0.46449996E-01  0.86046351E+00  0.54311321E+00
  0.93047861E+00  0.16839632E+00  0.46624585E+00
  0.84183571E+00  0.54349078E+00  0.50836578E-01
  0.16302572E+00  0.49707778E+00  0.92217749E+00
  0.16002398E+00  0.40561444E-01  0.45010997E+00
  0.85302354E+00  0.97420755E+00  0.54097413E+00
  0.65956731E+00  0.48954851E+00  0.51847806E+00
  0.36552236E+00  0.54385615E+00  0.41999484E+00
  0.34340860E+00  0.96708708E+00  0.95058574E+00
  0.63545976E+00  0.66881145E-01  0.66358942E-01
  0.54855243E-01  0.44658874E+00  0.15278382E+00
  0.96739999E+00  0.56899601E+00  0.86641844E+00
  0.53493002E+00  0.76040740E-01  0.85111906E+00
  0.44979874E+00  0.97803088E+00  0.15999708E+00
  0.98034759E+00  0.95060167E+00  0.36063675E+00
  0.52334829E-01  0.95337966E-01  0.63249489E+00
  0.49159324E+00  0.55281316E+00  0.62096315E+00
  0.53495127E+00  0.43055838E+00  0.33317870E+00
  0.57917461E+00  0.70465835E+00  0.75954669E+00
  0.39723551E+00  0.28749136E+00  0.23143312E+00
  0.90461333E+00  0.30889741E+00  0.25570615E+00
  0.10003243E+00  0.70310078E+00  0.71749183E+00
  0.38640937E+00  0.19332552E+00  0.72064504E+00
  0.60637659E+00  0.79487779E+00  0.28006616E+00
  0.10280152E+00  0.80000001E+00  0.22747108E+00
  0.89340034E+00  0.19757148E+00  0.75911349E+00
  0.78294616E+00  0.60110731E+00  0.68658917E+00
  0.24055189E+00  0.39759732E+00  0.29963540E+00
  0.25537676E+00  0.89747833E+00  0.33342764E+00
  0.71385390E+00  0.10545145E+00  0.68701578E+00
  0.71913223E+00  0.37878145E+00  0.18025029E+00
  0.29639791E+00  0.60557637E+00  0.81922048E+00
  0.21385575E+00  0.10160374E+00  0.79137378E+00
  0.77170142E+00  0.88315068E+00  0.20241045E+00
  0.72383899E+00  0.79005330E+00  0.59115724E+00
  0.29513776E+00  0.19457846E+00  0.39688840E+00
  0.26500837E+00  0.29809456E+00  0.88719695E+00
  0.69508954E+00  0.71645600E+00  0.92105460E-01
  0.18566250E+00  0.70167409E+00  0.41751684E+00
  0.77833194E+00  0.30470623E+00  0.60787498E+00
  0.81457081E+00  0.20239758E+00  0.93083450E-01
  0.18997339E+00  0.78772227E+00  0.91546093E+00
  0.43058847E+00  0.86267435E+00  0.48506953E+00
  0.56085351E+00  0.15922872E+00  0.52107774E+00
  0.65943104E-01  0.15189177E+00  0.97410025E+00
  0.95532750E+00  0.86286191E+00  0.42467705E-01
  0.95369349E+00  0.64405896E+00  0.53458846E+00
  0.39612162E-01  0.34296761E+00  0.46719815E+00
  0.54149880E+00  0.33480792E+00  0.37065884E-01
  0.43523358E+00  0.65387148E+00  0.99343874E+00
  0.33991396E+00  0.40961457E-01  0.57238717E+00
  0.63209964E+00  0.96738313E+00  0.45049584E+00
  0.64754327E+00  0.51316216E+00  0.94460013E+00
  0.34081992E+00  0.46713936E+00  0.49384677E-01
  0.15196851E+00  0.97240427E+00  0.16352781E-01
  0.86412973E+00  0.40846881E-01  0.95245620E+00
  0.85997473E+00  0.45171771E+00  0.43436552E+00
  0.14505920E+00  0.51709058E+00  0.54654056E+00
  0.52767055E+00  0.98907886E+00  0.66316808E+00
  0.45540425E+00  0.42743946E-01  0.34135290E+00
  0.44635716E-01  0.53742568E+00  0.34758453E+00
  0.95714586E+00  0.45490073E+00  0.66238993E+00
  0.46391720E+00  0.44859576E+00  0.85125085E+00
  0.55672710E+00  0.55581241E+00  0.15675778E+00
  0.97996839E+00  0.50146348E-01  0.14752713E+00
  0.25458805E-01  0.93568824E+00  0.83993033E+00
  0.10396232E+00  0.12285850E-01  0.27042530E+00
  0.85959812E+00  0.14080255E-01  0.76355069E+00
  0.36611819E+00  0.99855009E+00  0.76793029E+00
  0.63018285E+00  0.99779982E+00  0.27414356E+00
  0.87667667E+00  0.50057619E+00  0.25579263E+00
  0.14030553E+00  0.50413984E+00  0.74235092E+00
  0.60570538E+00  0.51296132E+00  0.76427175E+00
  0.38862193E+00  0.49656467E+00  0.24450953E+00
  0.24595142E+00  0.14216404E+00  0.96797990E+00
  0.76574404E+00  0.87872998E+00  0.65843752E-02
  0.73204044E+00  0.37490018E+00  0.91151096E-02
  0.24242422E+00  0.61453900E+00  0.13588814E-01
  0.22393905E+00  0.85638769E+00  0.51429680E+00
  0.74318835E+00  0.12788276E+00  0.49385457E+00
  0.75564587E+00  0.60922548E+00  0.48201744E+00
  0.24833043E+00  0.38518188E+00  0.49159742E+00
  0.99409350E+00  0.24563712E+00  0.12668413E+00
  0.13333545E-01  0.76829274E+00  0.87974707E+00
  0.11829998E-02  0.75477869E+00  0.38066847E+00
  0.99769561E+00  0.26207109E+00  0.63145456E+00
  0.50628118E+00  0.25879719E+00  0.86513623E+00
  0.49052921E+00  0.75035638E+00  0.13549039E+00
  0.50624067E+00  0.74033265E+00  0.61770080E+00
  0.48008485E+00  0.24368441E+00  0.37327438E+00
  0.14061936E-01  0.83066127E-02  0.99400615E+00
  0.48369556E+00  0.50275539E-02  0.49870281E+00
  0.12639845E-02  0.48984746E+00  0.50953329E+00
  0.49213221E+00  0.49988845E+00  0.10858618E-01
  0.74264421E+00  0.23735531E+00  0.23414745E+00
  0.24735088E+00  0.75371422E+00  0.76992526E+00
  0.74115737E+00  0.75236073E+00  0.74057902E+00
  0.24804996E+00  0.23881030E+00  0.23990775E+00
  0.23690407E+00  0.24970155E+00  0.73154890E+00
  0.75328523E+00  0.72706976E+00  0.24079118E+00
  0.26392764E+00  0.75476679E+00  0.26745460E+00
  0.75490015E+00  0.26754432E+00  0.74754141E+00
  0.49793524E+00  0.48742154E+00  0.48040769E+00
  0.63571138E-02  0.50283581E+00  0.99773685E+00
  0.49975692E+00  0.78466365E-02  0.18258602E-01
  0.73515821E-02  0.65338195E-02  0.51540758E+00
  0.40226696E+00  0.90317732E+00  0.31576861E+00
  0.78168834E-01  0.68374879E+00  0.58000918E+00
  0.90812253E+00  0.84728074E+00  0.18393391E+00
  0.89825602E+00  0.30437395E+00  0.40507507E+00
  0.74124833E+00  0.85058180E+00  0.46053844E+00
  0.26217820E+00  0.60420020E+00  0.54326206E+00
  0.67909680E+00  0.93642632E+00  0.60846161E+00
  0.62600368E+00  0.72596068E+00  0.98144489E+00
  0.74288918E+00  0.37107531E+00  0.51151105E+00
  0.85451890E+00  0.80500530E+00  0.59317553E+00
  0.81328138E+00  0.44241328E+00  0.66194260E+00
  0.20986909E+00  0.91040918E+00  0.88476724E+00
  0.82306204E+00  0.94168134E+00  0.31943468E+00
  0.61285660E+00  0.31127733E+00  0.55133123E+00
  0.67845228E+00  0.41534405E+00  0.35150683E+00
  0.70615300E+00  0.55938352E+00  0.70442330E-01
  0.33398887E+00  0.54759345E+00  0.69017524E+00
  0.31663987E+00  0.63380696E-01  0.33624897E+00
  0.85000839E+00  0.57506069E-01  0.15248619E+00
  0.57889911E+00  0.61109664E+00  0.28181517E+00
  0.17805697E+00  0.57611766E+00  0.34907340E+00
  0.88826530E-01  0.40220893E+00  0.27332053E+00
  0.19881555E+00  0.39283945E+00  0.77809103E-03
  0.57154625E+00  0.40189535E+00  0.17370344E+00
  0.42597445E+00  0.10396249E+00  0.20242329E+00
  0.45613861E+00  0.21370679E+00  0.59952202E+00
  0.32821925E+00  0.83080701E+00  0.98815377E+00
  0.17783757E+00  0.47311035E+00  0.20170621E+00
  0.93341574E+00  0.63984847E+00  0.70508121E+00
  0.90443918E+00  0.18501096E+00  0.91280968E+00
  0.73412138E+00  0.13900272E+00  0.98887998E+00
  0.66081561E-01  0.85172517E+00  0.67782276E+00
  0.85398045E-01  0.82770153E+00  0.86571992E-01
  0.41338618E+00  0.29353944E+00  0.83120315E-01
  0.58074922E+00  0.19392061E+00  0.87825492E-01
  0.55657502E+00  0.82762562E+00  0.85233025E+00
  0.44792123E+00  0.67408461E+00  0.86109884E+00
  0.53735434E-01  0.27046579E+00  0.89319489E+00
  0.93973676E+00  0.11360834E+00  0.32241579E+00
  0.11105684E+00  0.17381449E-01  0.74579327E+00
  0.92316958E+00  0.38428588E+00  0.82574241E+00
  0.41066115E+00  0.34641453E+00  0.66836543E+00
  0.56027200E+00  0.78809238E+00  0.40399384E+00
  0.32619628E+00  0.46257956E+00  0.84259227E+00
  0.82378683E+00  0.58872312E+00  0.90382698E+00