LLZO_Ia3d_partial_17                    
   1.00000000000000     
    12.9652004242000007    0.0000000000000000    0.0000000000000000
     0.0000000000000000   12.9650001526000000    0.0000000000000000
     0.0000000000000000    0.0000000000000000   12.9650001526000000
   O    La   Zr   Li   Al
    96    24    16    50     2
Direct
  0.0988484172945329  0.1874798768295371  0.2757401509865873
  0.8954630963092424  0.8109128771968412  0.7135585646986269
  0.3964813787589905  0.8174394320503932  0.7665181726461999
  0.5980435380664300  0.2061759384961883  0.2086476514326537
  0.9014975197203110  0.6944249860348269  0.2202026599917171
  0.0990436188211903  0.3021918444903479  0.7782451746883301
  0.6003650997891872  0.3039422159058865  0.7193980321077408
  0.4013731896638135  0.6939997679343748  0.2904392857307656
  0.2859041542387281  0.0994469866242803  0.1943541927107706
  0.7162690199467753  0.9054622439427119  0.8045326865893071
  0.7888692460638103  0.4019909113188053  0.8052071883179236
  0.2178931635181597  0.5958811817521877  0.2042406499891500
  0.2151509461234559  0.9082371768379501  0.6956623605661830
  0.7768443865223315  0.1018564806165371  0.3040615322497041
  0.7136150583341314  0.6030198647961050  0.3034863650096191
  0.2832888037892103  0.3977505281213377  0.6915066015761471
  0.1913085981560746  0.2867569900168128  0.1029009107842282
  0.8057724074052574  0.7166635963122823  0.8992503519594276
  0.8001476866675018  0.7837556369238673  0.4012105221589286
  0.1986749369616136  0.2030838896890426  0.5974219944990816
  0.6923210342489488  0.2272349577698617  0.9036854823542779
  0.3009490870552153  0.7740711634554011  0.0995712101118257
  0.3013454536369001  0.7151094203500705  0.5981556494139981
  0.6846161528105457  0.2743560441682114  0.3968392615279553
  0.9480271642016945  0.3477718556949305  0.9695841844789470
  0.0480317927559848  0.6508380297123697  0.0393346094231236
  0.5581453885263271  0.6462136889044650  0.4772121246002760
  0.4489978686655337  0.3438258865212321  0.5330939988247626
  0.4520963517939640  0.1470379569370827  0.0318534172619420
  0.5589113632446914  0.8454528949800019  0.9751486390970663
  0.0519345126214210  0.8498997636504987  0.5312992561354544
  0.9418994940500427  0.1459623080058538  0.4616937540118674
  0.8467234364754870  0.5357397260672974  0.0474102140889723
  0.1480338418753340  0.4630396304372548  0.9494436835793155
  0.1544227934532045  0.0326992313530288  0.4508572756180952
  0.8441833371846021  0.9697697176175942  0.5476231624228605
  0.6517033167430325  0.4596170068363956  0.5567943574449692
  0.3475593872930305  0.5259997661178433  0.4520924675286986
  0.3571250013163895  0.9799271646130754  0.9326062085122682
  0.6550685104630185  0.0330679760049240  0.0519229780244294
  0.0287114946015902  0.4497077618608286  0.1541996315089699
  0.9705515517594484  0.5523357069789736  0.8476988782839630
  0.5432080400238833  0.0521098014345078  0.8457966681417869
  0.4714570327933753  0.9507929822414708  0.1488025131785807
  0.9654356967207456  0.9458631634014796  0.3477914947971638
  0.0222718176736061  0.0552093096341074  0.6480118976344896
  0.4625103861054578  0.5448127988004290  0.6516472254247271
  0.5259383600663001  0.4392709166343243  0.3525071221376107
  0.5973409574308135  0.6982203475705784  0.7799765076813168
  0.3971056615668975  0.3028344471351925  0.2246307360427035
  0.9005195461469443  0.3084012786427362  0.2774344208101436
  0.1000797913360603  0.7097232219902097  0.7149004568644806
  0.4046243429742324  0.1982803494648153  0.7212785235245485
  0.5968024159482946  0.8024509885205713  0.2875174062225642
  0.1055946969720967  0.8102429140824926  0.2171854800564585
  0.9013288966711342  0.1970511133250971  0.7837062571953288
  0.7759449713637465  0.6000937356585753  0.7002870522749762
  0.2187820518084493  0.3991830207935143  0.3040013540495100
  0.2841843521306362  0.8923242649736690  0.3157279806746267
  0.7068723908660394  0.0963177319222096  0.7067191948829096
  0.7176689763325178  0.4067893750611020  0.1969168687606920
  0.2702399579534398  0.6032171142034477  0.8070305347093798
  0.2119748741292941  0.1002138695970263  0.8050474076137112
  0.7736388274101053  0.8981436109962849  0.1909178942225264
  0.6985180545519309  0.7827297892874528  0.5977788180253352
  0.2980129827532895  0.2147003258967124  0.4065741713562905
  0.3037638066052931  0.2724328673825668  0.9010461274011239
  0.6965798373746166  0.7127619636082139  0.1008243476708551
  0.1943395981295073  0.7129066611585230  0.4029839159464308
  0.8025498764435126  0.2694903693856059  0.6035739376762151
  0.8013695710499603  0.2214849438312265  0.0997254765207881
  0.1936712557711963  0.7896314024384083  0.9017546345053362
  0.4423765814051143  0.8572283073231216  0.4847490598192083
  0.5532148244736510  0.1532591598208785  0.5323648249892314
  0.0520091689223702  0.1507082004781357  0.9697520912440434
  0.9435029680513234  0.8491042296002178  0.0368013456874141
  0.9396694346048953  0.6507715984424612  0.5232288797905170
  0.0587991695936641  0.3540909288258291  0.4629153289809720
  0.5588121613554403  0.3509291078598151  0.0339406087794688
  0.4533555917435729  0.6517228867605971  0.9709611718795302
  0.3478602828210681  0.0485919896409035  0.5484935044712057
  0.6497299098949926  0.9683312504817887  0.4424580202871699
  0.6489740204659260  0.5365096164516601  0.9431367751122478
  0.3493083435035420  0.4766431274860470  0.0598496978261874
  0.1532945102930432  0.9680609218108970  0.0502405816692534
  0.8517143783502785  0.0360255770422857  0.9483877560068651
  0.8456427642576394  0.4712525853767572  0.4486341690852367
  0.1463298649096554  0.5278865107734492  0.5639370304461234
  0.5476893458987758  0.9562851675793657  0.6507460394624682
  0.4752879874217946  0.0567360153999437  0.3443292174294925
  0.0324490337634719  0.5516741112667035  0.3496850342820025
  0.9609925001018413  0.4323159813846614  0.6437005254392447
  0.4735958211907128  0.4370209623959495  0.8527618304525514
  0.5350250997253845  0.5453733889184263  0.1549258953425689
  0.9646831283291436  0.0524317042432757  0.1509196124562084
  0.0239369580515595  0.9393696694105269  0.8497982885402086
  0.1358251607547061 -0.0000116422998498  0.2478273008557327
  0.8799327718549973  0.0014180013006528  0.7522383900115116
  0.3743208689421014  0.0006676005778557  0.7510183473079927
  0.6283019102547882  0.0006273798728531  0.2469437686484204
  0.8717126641998161  0.4964170367557471  0.2570263711466049
  0.1264554360384230  0.4972198334562254  0.7508093160016819
  0.6205888582400523  0.5002817416506095  0.7507625616359250
  0.3772720913077603  0.4959018327893003  0.2493769879961087
  0.2533439866391451  0.1234424145350029  1.0021352548105538
  0.7500471614444909  0.8708878781473784  0.0027059312649531
  0.7517661368404089  0.3765597930680772  0.0005680010962277
  0.2542592333493002  0.6221772650195401  0.9954193168473300
  0.2521937647451477  0.8732841844709138  0.5001258612957749
  0.7520177234294516  0.1345351905034875  0.4933405185360234
  0.7487621723179342  0.6234449489717321  0.5014072270073413
  0.2453685142910861  0.3770665346196045  0.4983720381993532
 -0.0000295095660296  0.2492749368563739  0.1300500298907291
  0.9999380610169426  0.7499905058320738  0.8727124902426492
  0.0008035790504834  0.7499856862456854  0.3772375511161179
  0.9961204410860420  0.2483937752199423  0.6128983476606816
  0.4993028862529393  0.2542852735678027  0.8798334261899968
  0.4948346376237395  0.7528046973393452  0.1232676415277554
  0.4981686651881260  0.7461133696709971  0.6283081679182524
  0.5006336019486802  0.2505274093961697  0.3687272554827293
  0.0021613632492135  0.9974868935504523  1.0014159881858984
  0.5017135626602951  0.0064989107801340  0.4909606520128207
  0.9973728505734644  0.5005032126683907  0.5019977298813624
  0.4964256097396900  0.4985967476055647  0.0002721099794099
  0.7519051726594199  0.2519552052766371  0.2511271637948194
  0.2503421022520047  0.7524671896459268  0.7531516150677983
  0.7474273729193922  0.7480503994626811  0.7478327308379853
  0.2462033274439160  0.2477157786230484  0.2485179889415021
  0.2528717778242433  0.2512896056172301  0.7550401559958749
  0.7505419055041682  0.7506727721780587  0.2509206316543912
  0.2512219972165531  0.7478615397525730  0.2503476803159074
  0.7507328316571341  0.2543434850498522  0.7558068427898891
  0.5005304822501172  0.4960985432160366  0.5007939652173501
  0.0014317706559216  0.4984268874540659  0.0003783685435551
  0.5030951837172921  0.9947621361139634  0.9997271174814378
  0.9960168187979080  1.0000907640378021  0.4989654802479582
  0.3711863960466292 -0.0129521276764904  0.2585290611449807
  0.0729030157390060  0.8750495446271579  0.6777121797844476
  0.9132179110157259  0.9240150321921438  0.2022138918477404
  0.7195519511972817  0.4001897922624729  0.4399454657931478
  0.6431452304086418  0.8209366420933918  0.4317613156876116
  0.3177462814764315  0.5685527160601542  0.6044462224180487
  0.3416136267579530  0.6675480005811317  0.4381410788287778
  0.5974875773327668  0.6750195525372513  0.9214324293807221
  0.5602727034984660  0.1661403027225676  0.6758465531009922
  0.1672280081409274  0.9436581323658552  0.8451809087240358
  0.8127440939687856  0.4101773523773298  0.5895340760257178
  0.1599055682767537  0.0510401992360656  0.6785626686468225
  0.8135104075889014  0.9293236872952227  0.3934856326233468
  0.4167141666839526  0.2010549765764606  0.5774026443915183
  0.6030576039702422  0.3154477132165667  0.5736066156470654
  0.8250501803400478  0.5675264780986082  0.8682624466546426
  0.0973096613592471  0.3120203413398691  0.9280224041170142
  0.4332395324902122  0.1135977766810636  0.1751315186655514
  0.8178068651188022  0.0775679290925239  0.1019680525344376
  0.5511697984230710  0.6659478830691169  0.3355929388467824
  0.1786607792517479  0.5681518111486399  0.3576672897460287
  0.0758767005256826  0.4092466603128052  0.3157146054207038
  0.0742554485207993  0.5905664438910160  0.1915519959022372
  0.6749564181231635  0.5708640196845591  0.1403350490696718
  0.5798780927178144  0.3704025598418931  0.1747803792488815
  0.4321275603506878  0.3623400513148647  0.6767428447435444
  0.1478665320758863  0.8239881382056429  0.0678222035420162
  0.8872182236789306  0.6719552016375213  0.0753344420072380
  0.6964360118243227  0.9247745984063684  0.5750158913173352
  0.9008413061443491  0.1851518838621559  0.9308295919874809
  0.7170305446208182  0.0912648818183136  0.9319185306723118
  0.9384033693955954  0.3463359906870732  0.8219215004725684
  0.2856543806150016  0.8737715957914830  0.9912475811046111
  0.6266688071310856  0.4958573128596304  0.2778540218864464
  0.6392155632350737  0.1812683908818296  0.0698635200583959
  0.4765217768952510  0.7712512410681548  0.8721887300783462
  0.3744999702655826  0.5080783935586977  0.7747557824247908
  0.1752178156469474  0.4346029222658134  0.1518064917807269
  0.9200100905218350  0.0853903913793084  0.3031828322968964
  0.0636305316111977  0.1531766410012253  0.8239910749937195
  0.8857407472332800  0.5119119626781251  0.7295888095113933
  0.2662873608631920  0.3749225008874667 -0.0040644016654396
  0.1630803668586241  0.6698007751372964  0.5545202991566606
  0.4670964168180493  0.2670837493433975  0.1074988304615190
  0.8477708370561888  0.8254088828442030  0.5620135546442923
  0.4502882323556600  0.8235373806978884  0.3455376162194788
  0.0029315967817351  0.7609025983808584  0.1355230877269954
  1.0000372780621480  0.2483062480083319  0.3759992397751307
  0.7443758635983562  0.6277279040650933  0.9972227813773545
  0.9865797229823895  0.7278810035930795  0.6309493522080918
  0.6266975093220351  0.9949363885055558  0.7555971050699142
  0.2454531835525721  0.1247061381186731  0.4938238648315894
