LLZO_Ia3d_partial_0                     
   1.00000000000000     
    12.9652004242000007    0.0000000000000000    0.0000000000000000
     0.0000000000000000   12.9650001526000000    0.0000000000000000
     0.0000000000000000    0.0000000000000000   12.9650001526000000
   O    La   Zr   Li   Al
    96    24    16    50     2
Direct
  0.0982790648032476  0.1925829210014200  0.2861940372001512
  0.9005892928098241  0.8036586068319284  0.7175159218333625
  0.4129079862409432  0.7925429313158093  0.7944677562863807
  0.5969055051380038  0.1904204669537136  0.2239315474110350
  0.9054637923641479  0.6983258008195394  0.2190188380298700
  0.1022086939282799  0.3030204362080039  0.7828743793639645
  0.5965379331565847  0.3077115231793027  0.7110485159759711
  0.4032712760603225  0.7021554856984251  0.2926681126637244
  0.2852822235001577  0.1090984233221658  0.1843732881095639
  0.7203258885294404  0.8943883012380170  0.8043775250017906
  0.7751664320631909  0.3964731237525019  0.8053840905156286
  0.2189158477564802  0.6042710690680756  0.1971389716861200
  0.2287994174514912  0.8978163793571295  0.6974197004191273
  0.7891294515216941  0.1014129208020583  0.3052231641927509
  0.7322607199675489  0.6039155859473689  0.3142611561001703
  0.2840871261030852  0.3935023440280574  0.6861646181334465
  0.1846355276701478  0.2766246237075164  0.0979043979143557
  0.8133354330051749  0.7247085311615189  0.9014431007046403
  0.8049668057781153  0.7930747358040670  0.4004157163933940
  0.1986284819105274  0.2152669932948288  0.5978902661281732
  0.6833972630896820  0.2295313224486443  0.9035623969091364
  0.3083035884136317  0.7805381494027396  0.0964655454108510
  0.3080608883937428  0.7198311137723366  0.5954684702199340
  0.6982228753711412  0.2830188134660038  0.4021626450312885
  0.9471701210658497  0.3541223479021193  0.9711255339714198
  0.0591678241809239  0.6590718118944354  0.0327004602726071
  0.5534185522322702  0.6512571843476489  0.4587513899322909
  0.4439318554355486  0.3513887514510353  0.5203003015236564
  0.4539350773966954  0.1581398329715207  0.0304856199024541
  0.5523264817701082  0.8508626479825422  0.9646614031639843
  0.0648138533887443  0.8557434598360151  0.5379159261650467
  0.9508216061423781  0.1540821166362679  0.4725449866105875
  0.8578968036702780  0.5430784332076709  0.0540052519466820
  0.1573055099163032  0.4677022529880283  0.9466556194560204
  0.1562365267763702  0.0320624844002097  0.4457127662740070
  0.8552871877165699  0.9805899564405766  0.5586023308816103
  0.6523031180341524  0.4729114075471375  0.5480719445857746
  0.3493124297759949  0.5338122414136763  0.4443872762229279
  0.3467091708998583  0.9647518022348480  0.9624450482341694
  0.6480573696056757  0.0339264470896940  0.0569091862358573
  0.0335661296117917  0.4492724063083954  0.1459627606396931
  0.9839030464511531  0.5635127914455402  0.8458309547325015
  0.5212999879601578  0.0593737300244876  0.8493437177275378
  0.4712477915463762  0.9428593413772324  0.1548538152517442
  0.9757488210668325  0.9445973840938374  0.3508432341540332
  0.0395105057648709  0.0553585742236991  0.6515429283577686
  0.4655351783268142  0.5561803521971618  0.6468324767707531
  0.5384259167593775  0.4479544492999606  0.3462218730075807
  0.5999738565213623  0.6933538730693958  0.7855963802869799
  0.3961948239273053  0.3073864004602559  0.2201747029673428
  0.9025637184115594  0.3000394020566844  0.2851482619444768
  0.1049455381804644  0.6980743043261683  0.7095916770418500
  0.4037049309029257  0.1947518933386527  0.7100566020085959
  0.5986042772433309  0.7957181417292645  0.2945410563072384
  0.1000760787617047  0.8013316131644231  0.2235014104290566
  0.8960865528803724  0.1865160772413530  0.7733775546819103
  0.7849547361838873  0.5954495501872386  0.6941087254004544
  0.2173088768269640  0.4011852874101710  0.3052763441461625
  0.2845909718305230  0.9074763057474550  0.2910555429343263
  0.7057400222507049  0.1044930753951729  0.6928629846994754
  0.7308925263731224  0.3987481367000257  0.1922644877555127
  0.2825972801945221  0.5946418256141143  0.8002483671094249
  0.2245686507157842  0.0941835648868164  0.7989227714010679
  0.7812838358541885  0.9051242520275009  0.2020157343750520
  0.6915526668885223  0.7712623139446889  0.5977716232487845
  0.3007127215910005  0.2194943663597679  0.3992996977797695
  0.3033391645614858  0.2784116579334012  0.8984447227584662
  0.6934068136897544  0.7300746371646138  0.1027057633057831
  0.2001190821496349  0.7245644502780095  0.4021542539560602
  0.8023344480538385  0.2832141286724475  0.6004496427135981
  0.8006360093778428  0.2114020699305218  0.1020975391237844
  0.2068193525883501  0.7861507705697844  0.8949212476139446
  0.4533169759551491  0.8422027140046746  0.4540729699993061
  0.5565744391159313  0.1497331164059390  0.5237237874937694
  0.0596120439633419  0.1500863746677072  0.9576305214879771
  0.9437707072882046  0.8521483528687965  0.0335999964386956
  0.9507146830716604  0.6524032853043340  0.5319745241975044
  0.0596288208714230  0.3509156604996853  0.4763788824794506
  0.5539288336469766  0.3578075906978501  0.0428467057903776
  0.4578494288393706  0.6621903011222684  0.9570723806639327
  0.3523941584591153  0.0296020937245549  0.5522398888931968
  0.6515883473903002  0.9746278957457949  0.4354281613268343
  0.6521536718099189  0.5246352124327284  0.9409377750481637
  0.3511443295150708  0.4710835172609288  0.0552995620187001
  0.1430591853023268  0.9658184847731223  0.0612021337416042
  0.8499689931267123  0.0252492973032237  0.9407125038394877
  0.8541223866612516  0.4666030721070044  0.4467937765117163
  0.1565833506739926  0.5342645793484145  0.5499904224391706
  0.5232740707224106  0.9378131548117975  0.6456990965459121
  0.4585200494183972  0.0482665193236133  0.3527671793274131
  0.0390195891423261  0.5620025337825750  0.3488138585598355
  0.9653051728696506  0.4566543396087187  0.6486520918450527
  0.4609203858440910  0.4549898059911208  0.8552201059287970
  0.5264747162606402  0.5617543917737305  0.1542651947852911
  0.9708027269044032  0.0560941446699839  0.1458081709757259
  0.0359481854088476  0.9463588828391738  0.8436256660273360
  0.1229674130083661  0.0051571859325167  0.2480787300790651
  0.8631910143794547  0.0016526076155298  0.7493124914114577
  0.3820584713873922  0.0039373675060480  0.7449768046546233
  0.6251305717545927  0.0071992634824964  0.2465429409757341
  0.8747438038924538  0.5008305976816344  0.2443972599727661
  0.1254952274739342  0.4940781482437275  0.7499556051782840
  0.6332521261750848  0.4975395449226534  0.7518378275962784
  0.3712770657775621  0.4973843912814326  0.2505215914932954
  0.2481315929331576  0.1267831285258380 -0.0004751053093475
  0.7516344496083084  0.8793075501393079 -0.0062839833784121
  0.7564605598283376  0.3780878066708865 -0.0030246746670692
  0.2441995993525812  0.6266654980352087  0.0032621018843477
  0.2466293736321492  0.8808660238633632  0.5042939720617612
  0.7513248055763941  0.1222028196829394  0.5024939945212326
  0.7583253999457442  0.6275091316495340  0.5005928822664319
  0.2486546247931027  0.3721292243755642  0.4981240825080626
 -0.0033760284847082  0.2496602077961320  0.1175254186052511
 -0.0007384374947731  0.7514949599367896  0.8692046363215614
 -0.0016854917407835  0.7575180421903356  0.3801537353742381
 -0.0038516351649726  0.2520632187731754  0.6276659875490157
  0.5014507626704848  0.2516646603853062  0.8724315531868477
  0.5099474693602520  0.7495400979508448  0.1241970677931562
  0.5100959503808997  0.7532839919068911  0.6255705390306081
  0.5019631413798521  0.2532573992917324  0.3745119544472701
 -0.0021629830714407  0.0047104796410026 -0.0065793873770652
  0.5088815259585414  0.0037112871870566  0.5005419414704599
  0.0047423264816607  0.5000744747311964  0.4951228795113934
  0.5111313329342783  0.5033614564023989  0.0024721159644751
  0.7507011638484563  0.2508275379484319  0.2497211224051425
  0.2506388105234181  0.7435792604045007  0.7455050861922867
  0.7577616617064434  0.7485956683129489  0.7538921409382495
  0.2449252240753599  0.2526583076472658  0.2488072840662326
  0.2504609334168273  0.2481388805836731  0.7478417174458950
  0.7593238266002237  0.7476281877091174  0.2465875692963315
  0.2471589394811742  0.7558936445672997  0.2487835322563955
  0.7499201369347339  0.2466285680757176  0.7551779256242066
  0.4996909520803293  0.4968159893576266  0.4992932359967357
 -0.0005875933801264  0.5021298529924690 -0.0025624781872149
  0.5033993570361294  0.0094830971679962 -0.0026409141818497
  0.0015720792775995  0.0049481973661468  0.5015554949239133
  0.1415740159277384  0.3203068312089301  0.9289172992116740
  0.8304641674034856  0.9505490463066671  0.3406012307524215
  0.4544859559782827  0.3233339548610783  0.6571024511208262
  0.9248418336979002  0.8980629976691165  0.1787093235728378
  0.0394369578270131  0.3169325851261357  0.3399676335611106
  0.3339347790384351  0.9232391019276018  0.1164309759537172
  0.0804220213838248  0.9154627112767851  0.6891167177036558
  0.5967900338641029  0.5722271784745614  0.2906121306533158
  0.4097670100930150  0.3266787002446969  0.0785660132091856
  0.3288051440428810  0.6751260370088176  0.4494090335512527
  0.9297955110520494  0.6069005163718493  0.6733625720628207
  0.8299296695531833  0.0673551021414219  0.1612298192535711
  0.3156662733587997  0.4210636910504002  0.9163824283702106
  0.3127348256859007  0.5727554622993157  0.5942501393287989
  0.7526027806798536  0.1257315837866825  0.9838619439993902
  0.6238146045940055 -0.0084808937800410  0.7517017610435416
  0.4239359113746128  0.9034693101198736  0.3206546261358893
  0.7442094826177189  0.6256201594906219 -0.0053956450667353
  0.8572606138407424  0.3200176009079177  0.4336673114302607
  0.6677936758679390  0.8371606055419366  0.4272850187395951
  0.4229639684394212  0.6036177893875014  0.8240032653284938
  0.0618347849187586  0.6492659310404838  0.1825538527042088
  0.4428184227750289  0.1742233282027026  0.1712317549719430
  0.1828046973596047  0.0745659729467363  0.6248169514732812
  0.0697483974068523  0.8078153052631235  0.0855226104467110
  0.1834585695573468  0.5775781035260029  0.3986951114578908
  0.3545090478622153  0.8248356060509484  0.9295560886457146
  0.1360133957460503  0.1766765633544736  0.4393016691208100
  0.6565088615461110  0.3263337880944907  0.5635495343593948
  0.8202404070143577  0.4272319212843021  0.5993421533157618
  0.1816195990613893  0.9409048896051546  0.8366283989915665
  0.3052358373535252  0.0789354744832842  0.4167474374491273
 -0.0941657260357843  0.6940326102080585  0.0719226674816672
  0.7928690914185255  0.8593187879934098  0.5400262219424332
 -0.0631032001880197  0.1505305385413821  0.3279395464109825
  0.3535569469589833  0.1751300401445266  0.5653723566835993
  0.3719444228905099  0.0237446891852161  0.2442008089190181
  0.5623358762651622  0.1669960769766413  0.6648722136630670
  0.1469519706841053  0.6769356630392899  0.5638043878907938
  0.6014492760327431  0.2052676576167271  0.0774173626705448
 -0.0068487451892477  0.7632770917087528  0.6190238564220452
  0.1235047090878665  0.4916916527935196  0.2476739118779023
  0.0771737890838945  0.0935447134829676  0.8027725012189818
  0.2041599082566068  0.4148670690619592  0.0787578452954955
  0.3756072422714744  0.4811806449090208  0.7393229038925276
  0.5911032046947025  0.4222185388345103  0.1886050285668871
  0.2250115661190454  0.8728324804409062  0.0057031255657628
 -0.0214687014911441  0.2505431023470682  0.8725778550523570
  0.8785485192827600  0.4866058149679924  0.7792982301481601
  0.6918248332970283  0.4282638113459962  0.3994585482875203
  0.5209092345835785  0.7557183385126918  0.8743250593192006
  0.5029803599844754  0.7423496715102798  0.3748339289271588
 
  0.00000000E+00  0.00000000E+00  0.00000000E+00
  0.00000000E+00  0.00000000E+00  0.00000000E+00
  0.00000000E+00  0.00000000E+00  0.00000000E+00
  0.00000000E+00  0.00000000E+00  0.00000000E+00
  0.00000000E+00  0.00000000E+00  0.00000000E+00
  0.00000000E+00  0.00000000E+00  0.00000000E+00
  0.00000000E+00  0.00000000E+00  0.00000000E+00
  0.00000000E+00  0.00000000E+00  0.00000000E+00
  0.00000000E+00  0.00000000E+00  0.00000000E+00
  0.00000000E+00  0.00000000E+00  0.00000000E+00
  0.00000000E+00  0.00000000E+00  0.00000000E+00
  0.00000000E+00  0.00000000E+00  0.00000000E+00
  0.00000000E+00  0.00000000E+00  0.00000000E+00
  0.00000000E+00  0.00000000E+00  0.00000000E+00
  0.00000000E+00  0.00000000E+00  0.00000000E+00
  0.00000000E+00  0.00000000E+00  0.00000000E+00
  0.00000000E+00  0.00000000E+00  0.00000000E+00
  0.00000000E+00  0.00000000E+00  0.00000000E+00
  0.00000000E+00  0.00000000E+00  0.00000000E+00
  0.00000000E+00  0.00000000E+00  0.00000000E+00
  0.00000000E+00  0.00000000E+00  0.00000000E+00
  0.00000000E+00  0.00000000E+00  0.00000000E+00
  0.00000000E+00  0.00000000E+00  0.00000000E+00
  0.00000000E+00  0.00000000E+00  0.00000000E+00
  0.00000000E+00  0.00000000E+00  0.00000000E+00
  0.00000000E+00  0.00000000E+00  0.00000000E+00
  0.00000000E+00  0.00000000E+00  0.00000000E+00
  0.00000000E+00  0.00000000E+00  0.00000000E+00
  0.00000000E+00  0.00000000E+00  0.00000000E+00
  0.00000000E+00  0.00000000E+00  0.00000000E+00
  0.00000000E+00  0.00000000E+00  0.00000000E+00
  0.00000000E+00  0.00000000E+00  0.00000000E+00
  0.00000000E+00  0.00000000E+00  0.00000000E+00
  0.00000000E+00  0.00000000E+00  0.00000000E+00
  0.00000000E+00  0.00000000E+00  0.00000000E+00
  0.00000000E+00  0.00000000E+00  0.00000000E+00
  0.00000000E+00  0.00000000E+00  0.00000000E+00
  0.00000000E+00  0.00000000E+00  0.00000000E+00
  0.00000000E+00  0.00000000E+00  0.00000000E+00
  0.00000000E+00  0.00000000E+00  0.00000000E+00
  0.00000000E+00  0.00000000E+00  0.00000000E+00
  0.00000000E+00  0.00000000E+00  0.00000000E+00
  0.00000000E+00  0.00000000E+00  0.00000000E+00
  0.00000000E+00  0.00000000E+00  0.00000000E+00
  0.00000000E+00  0.00000000E+00  0.00000000E+00
  0.00000000E+00  0.00000000E+00  0.00000000E+00
  0.00000000E+00  0.00000000E+00  0.00000000E+00
  0.00000000E+00  0.00000000E+00  0.00000000E+00
  0.00000000E+00  0.00000000E+00  0.00000000E+00
  0.00000000E+00  0.00000000E+00  0.00000000E+00
  0.00000000E+00  0.00000000E+00  0.00000000E+00
  0.00000000E+00  0.00000000E+00  0.00000000E+00
  0.00000000E+00  0.00000000E+00  0.00000000E+00
  0.00000000E+00  0.00000000E+00  0.00000000E+00
  0.00000000E+00  0.00000000E+00  0.00000000E+00
  0.00000000E+00  0.00000000E+00  0.00000000E+00
  0.00000000E+00  0.00000000E+00  0.00000000E+00
  0.00000000E+00  0.00000000E+00  0.00000000E+00
  0.00000000E+00  0.00000000E+00  0.00000000E+00
  0.00000000E+00  0.00000000E+00  0.00000000E+00
  0.00000000E+00  0.00000000E+00  0.00000000E+00
  0.00000000E+00  0.00000000E+00  0.00000000E+00
  0.00000000E+00  0.00000000E+00  0.00000000E+00
  0.00000000E+00  0.00000000E+00  0.00000000E+00
  0.00000000E+00  0.00000000E+00  0.00000000E+00
  0.00000000E+00  0.00000000E+00  0.00000000E+00
  0.00000000E+00  0.00000000E+00  0.00000000E+00
  0.00000000E+00  0.00000000E+00  0.00000000E+00
  0.00000000E+00  0.00000000E+00  0.00000000E+00
  0.00000000E+00  0.00000000E+00  0.00000000E+00
  0.00000000E+00  0.00000000E+00  0.00000000E+00
  0.00000000E+00  0.00000000E+00  0.00000000E+00
  0.00000000E+00  0.00000000E+00  0.00000000E+00
  0.00000000E+00  0.00000000E+00  0.00000000E+00
  0.00000000E+00  0.00000000E+00  0.00000000E+00
  0.00000000E+00  0.00000000E+00  0.00000000E+00
  0.00000000E+00  0.00000000E+00  0.00000000E+00
  0.00000000E+00  0.00000000E+00  0.00000000E+00
  0.00000000E+00  0.00000000E+00  0.00000000E+00
  0.00000000E+00  0.00000000E+00  0.00000000E+00
  0.00000000E+00  0.00000000E+00  0.00000000E+00
  0.00000000E+00  0.00000000E+00  0.00000000E+00
  0.00000000E+00  0.00000000E+00  0.00000000E+00
  0.00000000E+00  0.00000000E+00  0.00000000E+00
  0.00000000E+00  0.00000000E+00  0.00000000E+00
  0.00000000E+00  0.00000000E+00  0.00000000E+00
  0.00000000E+00  0.00000000E+00  0.00000000E+00
  0.00000000E+00  0.00000000E+00  0.00000000E+00
  0.00000000E+00  0.00000000E+00  0.00000000E+00
  0.00000000E+00  0.00000000E+00  0.00000000E+00
  0.00000000E+00  0.00000000E+00  0.00000000E+00
  0.00000000E+00  0.00000000E+00  0.00000000E+00
  0.00000000E+00  0.00000000E+00  0.00000000E+00
  0.00000000E+00  0.00000000E+00  0.00000000E+00
  0.00000000E+00  0.00000000E+00  0.00000000E+00
  0.00000000E+00  0.00000000E+00  0.00000000E+00
  0.00000000E+00  0.00000000E+00  0.00000000E+00
  0.00000000E+00  0.00000000E+00  0.00000000E+00
  0.00000000E+00  0.00000000E+00  0.00000000E+00
  0.00000000E+00  0.00000000E+00  0.00000000E+00
  0.00000000E+00  0.00000000E+00  0.00000000E+00
  0.00000000E+00  0.00000000E+00  0.00000000E+00
  0.00000000E+00  0.00000000E+00  0.00000000E+00
  0.00000000E+00  0.00000000E+00  0.00000000E+00
  0.00000000E+00  0.00000000E+00  0.00000000E+00
  0.00000000E+00  0.00000000E+00  0.00000000E+00
  0.00000000E+00  0.00000000E+00  0.00000000E+00
  0.00000000E+00  0.00000000E+00  0.00000000E+00
  0.00000000E+00  0.00000000E+00  0.00000000E+00
  0.00000000E+00  0.00000000E+00  0.00000000E+00
  0.00000000E+00  0.00000000E+00  0.00000000E+00
  0.00000000E+00  0.00000000E+00  0.00000000E+00
  0.00000000E+00  0.00000000E+00  0.00000000E+00
  0.00000000E+00  0.00000000E+00  0.00000000E+00
  0.00000000E+00  0.00000000E+00  0.00000000E+00
  0.00000000E+00  0.00000000E+00  0.00000000E+00
  0.00000000E+00  0.00000000E+00  0.00000000E+00
  0.00000000E+00  0.00000000E+00  0.00000000E+00
  0.00000000E+00  0.00000000E+00  0.00000000E+00
  0.00000000E+00  0.00000000E+00  0.00000000E+00
  0.00000000E+00  0.00000000E+00  0.00000000E+00
  0.00000000E+00  0.00000000E+00  0.00000000E+00
  0.00000000E+00  0.00000000E+00  0.00000000E+00
  0.00000000E+00  0.00000000E+00  0.00000000E+00
  0.00000000E+00  0.00000000E+00  0.00000000E+00
  0.00000000E+00  0.00000000E+00  0.00000000E+00
  0.00000000E+00  0.00000000E+00  0.00000000E+00
  0.00000000E+00  0.00000000E+00  0.00000000E+00
  0.00000000E+00  0.00000000E+00  0.00000000E+00
  0.00000000E+00  0.00000000E+00  0.00000000E+00
  0.00000000E+00  0.00000000E+00  0.00000000E+00
  0.00000000E+00  0.00000000E+00  0.00000000E+00
  0.00000000E+00  0.00000000E+00  0.00000000E+00
  0.00000000E+00  0.00000000E+00  0.00000000E+00
  0.00000000E+00  0.00000000E+00  0.00000000E+00
  0.00000000E+00  0.00000000E+00  0.00000000E+00
  0.00000000E+00  0.00000000E+00  0.00000000E+00
  0.00000000E+00  0.00000000E+00  0.00000000E+00
  0.00000000E+00  0.00000000E+00  0.00000000E+00
  0.00000000E+00  0.00000000E+00  0.00000000E+00
  0.00000000E+00  0.00000000E+00  0.00000000E+00
  0.00000000E+00  0.00000000E+00  0.00000000E+00
  0.00000000E+00  0.00000000E+00  0.00000000E+00
  0.00000000E+00  0.00000000E+00  0.00000000E+00
  0.00000000E+00  0.00000000E+00  0.00000000E+00
  0.00000000E+00  0.00000000E+00  0.00000000E+00
  0.00000000E+00  0.00000000E+00  0.00000000E+00
  0.00000000E+00  0.00000000E+00  0.00000000E+00
  0.00000000E+00  0.00000000E+00  0.00000000E+00
  0.00000000E+00  0.00000000E+00  0.00000000E+00
  0.00000000E+00  0.00000000E+00  0.00000000E+00
  0.00000000E+00  0.00000000E+00  0.00000000E+00
  0.00000000E+00  0.00000000E+00  0.00000000E+00
  0.00000000E+00  0.00000000E+00  0.00000000E+00
  0.00000000E+00  0.00000000E+00  0.00000000E+00
  0.00000000E+00  0.00000000E+00  0.00000000E+00
  0.00000000E+00  0.00000000E+00  0.00000000E+00
  0.00000000E+00  0.00000000E+00  0.00000000E+00
  0.00000000E+00  0.00000000E+00  0.00000000E+00
  0.00000000E+00  0.00000000E+00  0.00000000E+00
  0.00000000E+00  0.00000000E+00  0.00000000E+00
  0.00000000E+00  0.00000000E+00  0.00000000E+00
  0.00000000E+00  0.00000000E+00  0.00000000E+00
  0.00000000E+00  0.00000000E+00  0.00000000E+00
  0.00000000E+00  0.00000000E+00  0.00000000E+00
  0.00000000E+00  0.00000000E+00  0.00000000E+00
  0.00000000E+00  0.00000000E+00  0.00000000E+00
  0.00000000E+00  0.00000000E+00  0.00000000E+00
  0.00000000E+00  0.00000000E+00  0.00000000E+00
  0.00000000E+00  0.00000000E+00  0.00000000E+00
  0.00000000E+00  0.00000000E+00  0.00000000E+00
  0.00000000E+00  0.00000000E+00  0.00000000E+00
  0.00000000E+00  0.00000000E+00  0.00000000E+00
  0.00000000E+00  0.00000000E+00  0.00000000E+00
  0.00000000E+00  0.00000000E+00  0.00000000E+00
  0.00000000E+00  0.00000000E+00  0.00000000E+00
  0.00000000E+00  0.00000000E+00  0.00000000E+00
  0.00000000E+00  0.00000000E+00  0.00000000E+00
  0.00000000E+00  0.00000000E+00  0.00000000E+00
  0.00000000E+00  0.00000000E+00  0.00000000E+00
  0.00000000E+00  0.00000000E+00  0.00000000E+00
  0.00000000E+00  0.00000000E+00  0.00000000E+00
  0.00000000E+00  0.00000000E+00  0.00000000E+00
  0.00000000E+00  0.00000000E+00  0.00000000E+00
  0.00000000E+00  0.00000000E+00  0.00000000E+00
  0.00000000E+00  0.00000000E+00  0.00000000E+00
  0.00000000E+00  0.00000000E+00  0.00000000E+00
  0.00000000E+00  0.00000000E+00  0.00000000E+00
