LLZO_Ia3d_partial_17                    
   1.00000000000000     
    12.9652004242000007    0.0000000000000000    0.0000000000000000
     0.0000000000000000   12.9650001526000000    0.0000000000000000
     0.0000000000000000    0.0000000000000000   12.9650001526000000
   O    La   Zr   Li   Al
    96    24    16    50     2
Direct
  0.1003043151876716  0.1982228362584820  0.2940603856668315
  0.9061306206187598  0.8100290489916718  0.7304952277934708
  0.3780922956625695  0.8070426000645802  0.7911202189833152
  0.5914685015014592  0.1942002536022722  0.2276343414720655
  0.8920573959797693  0.7138914882799637  0.2178024537239028
  0.0931291571272185  0.2990779951945475  0.7695070535881864
  0.5982545145481177  0.3141258476556553  0.7164738589404183
  0.4068570387023382  0.6902649374784741  0.2731728603753288
  0.3074853807811381  0.0959181916140953  0.2167483307050377
  0.7179085505684158  0.9154486750924137  0.8083334429434018
  0.7846232545196938  0.3892225108602389  0.7851444548669899
  0.2189488017243354  0.5934622681863628  0.1980455612313944
  0.2137552345005911  0.9107278014726357  0.6963783265144877
  0.7877856598784510  0.0989627582550583  0.3063398762895760
  0.6814965027666172  0.6190044448028119  0.3080188830697516
  0.2968302143485622  0.4083558670064993  0.7184279142825267
  0.1953849998144717  0.2558957421710717  0.1124647489630736
  0.8076361516677332  0.7437662682287789  0.9084296245928840
  0.8095598703396110  0.7894971235588540  0.3975241126687466
  0.2114927007095266  0.2252037001952228  0.5971616143940893
  0.6880807363502295  0.2061967876511270  0.8888339100431459
  0.3005525804539574  0.7533962616249152  0.0905219539622504
  0.2893489845184709  0.7271600697569903  0.5889029621485189
  0.6634766051284466  0.2721014345463204  0.3981976649505532
  0.9381417028016550  0.3367716683461334  0.9843750792416063
  0.0723739715720555  0.6353945015155033  0.0096609552108039
  0.5647715653858665  0.6487284937270770  0.4784515255433394
  0.4726653564595525  0.3578004316781842  0.5500509804645702
  0.4553677890569069  0.1426603729180166  0.0245669176347467
  0.5727763651204244  0.8102693910748573  0.9819551126571269
  0.0623005129328582  0.8727087318303528  0.5362830682649742
  0.9342100763361699  0.1531428643533895  0.4571714516563977
  0.8736629324661138  0.5415771702755304  0.0674941724556309
  0.1529583372649758  0.4401038251743689  0.9427743859518374
  0.1529897242559820  0.0366701050760333  0.4619956394949792
  0.8689044847070583  0.9667131655513369  0.5651707231467681
  0.6810185975015136  0.4910425532592862  0.5471677557736216
  0.3772780990668936  0.5371282255321838  0.4181839247547112
  0.3457359348896450  0.9616549953921452  0.9420208989671289
  0.6534931097463121  0.0259493116785968  0.0556647066380176
  0.0240293120644165  0.4304396206020413  0.1534190211381607
  0.9551756540080520  0.5279469580660575  0.8460309081720966
  0.5584444593775784  0.0372649643873760  0.8546756665455927
  0.4493751430499331  0.9375972782153372  0.1506266800151122
  0.9701153531014627  0.9345608146312500  0.3593537071031808
  0.0301657586402309  0.0746833449265735  0.6545397388207959
  0.4888469074493488  0.5552546097905319  0.6470572031949589
  0.5382079039470449  0.4335222823529918  0.3463726587250088
  0.5845873065118770  0.7132665461376140  0.7739315230419106
  0.3871287824304062  0.2884747771241148  0.2259468160019653
  0.9023014356977711  0.2920984142453977  0.2759080072599465
  0.0991007510509640  0.7051589481447055  0.7159532671295842
  0.3981305327856994  0.1698589347890886  0.7125498556411806
  0.5831484479241825  0.8225277878300326  0.2656799715599066
  0.0959026423659053  0.8068223704258582  0.2214913663309108
  0.8852354060272182  0.1888411624557803  0.7816927695296324
  0.7867493592092080  0.6292268032323183  0.6750758371576534
  0.2156453894805177  0.4146247555447421  0.3356019474998639
  0.2661299305180144  0.8826373760154601  0.2972724159543030
  0.7129793786166074  0.0985753532824846  0.7025865657106172
  0.7287653898948377  0.4120202273583209  0.1849891724895383
  0.3061819929945124  0.5911972726628962  0.7839813124879448
  0.2179597433659246  0.1187326409919785  0.8158248476637561
  0.7729502624003487  0.9035547446900162  0.1965693215900115
  0.6935549109318380  0.8189413707849896  0.6050280116368966
  0.3102311275989102  0.2112463433168616  0.4137650994128353
  0.3352107282639125  0.2946854783643725  0.9073268650323069
  0.6831912291955948  0.6984331788059811  0.0871986049473273
  0.2018399840948555  0.7055920335105542  0.3945727898834097
  0.7954160802499923  0.2793397434888781  0.5974901465248581
  0.7662024865166636  0.2092767612429976  0.0984618904573520
  0.1827227315515523  0.7676575405111772  0.8886459599829318
  0.4476239308763564  0.8484146171885794  0.4718468431049788
  0.5376978331985712  0.1515272521535086  0.5316459460468447
  0.0423424190896017  0.1580832046581078  0.9595880942252620
  0.9475846836854344  0.8583144272264361  0.0492255292978769
  0.9518839070219300  0.6733065523102200  0.5255307778800749
  0.0259936395661142  0.3467735255514406  0.4854190426197388
  0.5529530827715605  0.3315576278013676  0.0270211284764648
  0.4412803677974406  0.6362301349323017  0.9596384635776918
  0.3418986298287737  0.0605293601940644  0.5804558765720270
  0.6442893584102860  0.9576681338023203  0.4555187598437396
  0.6650505731603922  0.5414604960838507  0.9336189901468676
  0.3608918062332747  0.4681337422768774  0.0419298692116226
  0.1550671499484681  0.9716871744135320  0.0687970330006280
  0.8623713835613277  0.0362013808496078  0.9457787492389811
  0.8567948303732329  0.4595422277633061  0.4425416093447954
  0.1693655262224732  0.5295522585581597  0.5477391261060834
  0.5459231580270856  0.9811054500692050  0.6464291137626740
  0.4808079435454321  0.0357470077043569  0.3381682355353088
  0.0168011039414316  0.5449096385473879  0.3362659592914791
  0.9705468953887605  0.4551740394444729  0.6390227603940406
  0.4843241221551001  0.4709029051904664  0.8335617864811560
  0.5380606580221454  0.5387924817608972  0.1300077395337794
  0.9609979667704974  0.0575918458910565  0.1340670506187131
  0.0348305910557657  0.9409312400506249  0.8494076554566062
  0.1184293408877594  0.9923827395345000  0.2472124661999962
  0.8830849567029089 -0.0028870521788015  0.7596180891422757
  0.3652399598519716  0.0000340605884684  0.7545162015976816
  0.6182255240682574 -0.0031028680236308  0.2612399484601360
  0.8767853815685537  0.4920791725939339  0.2584859358580072
  0.1221883868976582  0.5116783482100822  0.7523191763658373
  0.6317743633562454  0.5023980786092848  0.7380423141035251
  0.3786849532910332  0.5125353832938903  0.2393113257202384
  0.2650694134236419  0.1202420507910838  0.0008798605353435
  0.7322270264084616  0.8714534406876653  0.0038364170502080
  0.7449562704775794  0.3799116920227334 -0.0057303854115331
  0.2438248555921993  0.5970544998361615  1.0051986701381883
  0.2628740522813682  0.8679312135204539  0.5004962032226880
  0.7366947984613713  0.1284533935652889  0.4977421224125680
  0.7502492716705681  0.6414506828354044  0.4989056851934889
  0.2564019639766327  0.3833431085720860  0.5021211165237184
  0.9942064655344339  0.2461338387758670  0.1241396008829482
  0.9999743911499225  0.7505020984332481  0.8807820339679516
  0.0045964497054334  0.7697765910935321  0.3814175422158072
  0.9725899648872476  0.2713078776279642  0.6237811199870419
  0.5107422376987347  0.2308089160251257  0.8579137454178911
  0.4975497795909155  0.7203212579326080  0.1224134667584028
  0.5103435119437403  0.7603898466783967  0.6363508067663061
  0.4997408539651535  0.2472743911847163  0.3800850932590548
  0.0085947096156589  1.0010994408753109 -0.0083114592080551
  0.4946568868441361  0.0020448458833591  0.4909995838901460
  1.0067750539570148  0.5082993100067740  0.4771249113452808
  0.4984754496761881  0.4957588603960893 -0.0237914944928328
  0.7416695489587554  0.2468056644365038  0.2498773055816844
  0.2445981290788031  0.7435461445339214  0.7526282172291396
  0.7474154313613226  0.7640214631487645  0.7511697872273997
  0.2561038322631953  0.2523349277679105  0.2598292627858855
  0.2474979860765434  0.2553849265386963  0.7430726212683756
  0.7426292247785286  0.7477906948458897  0.2446358645252789
  0.2349490003783795  0.7436020206166868  0.2455941904766116
  0.7419112068735664  0.2482240304851571  0.7498359932457982
  0.5163838531987890  0.5009634239693962  0.4948308847183935
  0.0142139192704226  0.4973708533371929  0.0183957747545790
  0.5026289835672449  0.9772731878682153  1.0080434108539340
  1.0123946468977985  0.0106664529011514  0.5171148794356157
  0.3377463833819254  1.0469561445576940  0.3360625435985881
 -0.0542211544947347  0.6675337955442655  0.6544017617072618
  0.8049135597219323  1.0522725950934599  0.1532562238710116
  0.8325026012965474  0.4300799187700001  0.5767788505368797
  0.6372593315211690  0.8158930576122214  0.4232249654709228
  0.3795965033629174  0.6901496169409910  0.4371813728312631
  0.5356744205090340  0.6541220256345102  0.3460151849254103
  0.4764805402514762  0.7638741709602712  0.8842334271108566
  0.4409122475974852  0.3879618026143629  0.6797507806587955
  0.1637086304583805  0.9092457006484066  0.9109214080568343
  0.9283515423479113  0.3846543202909415  0.8304612888834503
  0.0747353031313918 -0.1542069909062690  0.6698008024187093
  0.8224276494927842  0.9233915828016297  0.3469818571864108
  0.5597052817135630  0.2775170014193208  0.6048736978317206
  0.4051743583991757  0.2082688938364280  0.5866867715624652
  0.6435442301463011  0.6849318007212560  0.9542551731208592
  0.1292197294948687  0.2648935469386745  0.9387164909512450
  0.4340144868346053  0.1001572831732619  0.1796230487104227
  0.5969372899020143  0.1611087745291601  0.0586875059847008
  0.6016331738853086  0.4743165417350486  0.2338627195447647
  0.1799095327468069  0.4721783764451856  0.2062975514442308
  0.0847643742805051  0.3579057111002051  0.3324129477797977
  0.0383146968731323  0.6453990154193462  0.1991856469770696
  0.7972122450125120  0.6077428085724481 -0.0434942780349332
  0.6935521552543802  0.5591547773658511  0.1288787566408191
  0.3575087486955414  0.5717785555758997  0.6393331269182930
  0.0898195064642302  0.8279697081706173  0.0908960605729463
  0.9279731165372129  0.9110807514578748  0.1733291563248326
  0.7480348777487315  0.8999392064258523  0.5201909157603749
  1.0267335403562050  0.1794145227016476  0.8133277957200931
  0.7011245087783406  0.0702758585910173  0.9134680031243870
  1.1197686487279481  0.0583343289559223  0.7614041198716519
  0.3086692321612938  0.9361658785627716  1.1432348835138526
  0.9100684916110735  0.3147137767749372  0.4106950528711134
  0.5292370898416735  0.3006342455695619  0.1634175993485216
  0.3396397862287683  0.7821306340187680  0.9428606756903217
  0.3310334953610085  0.4535851529546555  0.8326346049599626
  0.2600995715805463  0.3637110665778584  0.0483995686596539
  0.9303295530212567  0.1206379482834405  0.3372372132726067
 -0.1053884954607390  0.1715044615266072  0.9385640290650645
  0.8929320822756057  0.5138099599905115  0.7275684069577300
  0.4136929263546179  0.2600233236673852  1.0255776212984007
  0.1983575054055066  0.5545209759609617  0.4171308726663379
  0.7052744061551508  0.4157910477169551  0.4134199648727174
  0.9050188993889978  0.8341956782431599  0.5749362025460534
  0.4353961288400932  0.8401508965078825  0.3155132094115330
 -0.1212113253546548  0.6946625978426009  0.0785400806721944
  0.0540293822734022  0.2228053815050131  0.4232384801386923
  0.4513328386561622  0.6179513807089524  0.7946805182004097
  1.1326459893509289  0.6783331819322606  0.5726290330680892
  0.6328940203146005  1.0076898114167108  0.7530318930898100
  0.2493065731656777  0.1251535322339397  0.5145092527219675
 
 -0.66307808E-02  0.17219051E-02 -0.66785513E-02
 -0.16914143E-01  0.15987586E-01  0.12431247E-01
  0.25814753E-02 -0.20068251E-01  0.65145552E-02
 -0.41549851E-02  0.94429456E-02  0.34200546E-03
  0.95803828E-02 -0.38373253E-02 -0.23658127E-03
  0.13644178E-01  0.14870508E-01 -0.12321768E-01
 -0.11539367E-01  0.35603532E-02  0.14385447E-01
 -0.87559513E-02  0.66535441E-02  0.16982860E-02
 -0.46831355E-02  0.10317116E-01 -0.14180410E-01
 -0.29640378E-02 -0.30426203E-02 -0.19125893E-02
 -0.18105275E-01  0.11382741E-01  0.98163486E-02
  0.64447572E-02 -0.13306242E-02 -0.58232249E-02
  0.33876184E-02  0.12801175E-01 -0.59301347E-02
  0.36073445E-03  0.10192225E-01  0.12292494E-02
  0.33580147E-02 -0.20689329E-02 -0.20249666E-01
 -0.47749364E-02 -0.21489501E-02 -0.14001882E-01
 -0.14469500E-01 -0.92778290E-02 -0.50656195E-04
 -0.68655634E-02 -0.41141365E-02 -0.12866190E-01
 -0.91516207E-02 -0.11595343E-01  0.10478363E-01
  0.10471671E-01 -0.15525651E-02 -0.99945087E-02
  0.40336476E-02 -0.81976005E-02  0.20304598E-02
  0.49233591E-02 -0.59721967E-02  0.70170305E-02
  0.56543113E-02  0.16025876E-01 -0.43702547E-02
  0.15544534E-01  0.71269798E-02 -0.45880778E-03
  0.44898366E-02  0.66748665E-02 -0.37978694E-02
  0.89550591E-02 -0.10072930E-01 -0.26135950E-02
 -0.33624186E-02 -0.17704936E-01 -0.12466930E-01
  0.13868678E-01  0.12264821E-01  0.12182170E-01
  0.69215548E-03  0.41768969E-02 -0.89804009E-02
  0.36261886E-03 -0.10380732E-01 -0.34088536E-02
 -0.45695363E-02 -0.12702760E-02  0.12962394E-02
  0.83038702E-02 -0.20242392E-01  0.78628466E-03
  0.11706908E-02 -0.10909702E-02  0.15539608E-01
 -0.13339912E-01  0.28603821E-02  0.67547314E-03
  0.19688978E-02  0.38399363E-02 -0.40075210E-02
  0.78414117E-02  0.12497613E-01  0.99102910E-03
 -0.17033317E-01 -0.12799269E-01 -0.45699407E-02
 -0.17436405E-02  0.16314106E-01  0.26538376E-02
 -0.28387001E-03  0.84655915E-02  0.11412337E-01
  0.11218639E-01 -0.10291276E-01 -0.44198541E-02
 -0.47458702E-02 -0.57925351E-02 -0.15940674E-02
 -0.61011227E-02  0.42872954E-02 -0.60187217E-02
 -0.65212062E-02  0.10378167E-01  0.36734188E-02
 -0.21938743E-02 -0.80261921E-02 -0.39255632E-03
  0.80579618E-03  0.16757030E-01  0.26197955E-02
 -0.14966429E-01 -0.38644697E-02 -0.80494294E-02
 -0.21749227E-02  0.11257237E-01 -0.24335747E-02
  0.35693128E-02  0.86214697E-02 -0.35480406E-02
 -0.19403707E-02 -0.85918081E-02  0.18411772E-01
  0.11370532E-01 -0.16406414E-01 -0.18129538E-01
  0.31189564E-02 -0.97756134E-02 -0.26217393E-02
 -0.41645426E-02  0.66615053E-02  0.41352189E-02
 -0.31100621E-02 -0.90350663E-02  0.46467871E-02
  0.26266233E-02  0.13960135E-01 -0.14689288E-01
 -0.94266710E-02 -0.16553835E-01  0.47804623E-02
  0.22106091E-01 -0.55664083E-02  0.42605049E-02
  0.77582764E-02  0.17929944E-01 -0.76722759E-02
 -0.63236434E-02 -0.90080935E-03  0.27663021E-02
  0.73944724E-02 -0.16307360E-02 -0.10465228E-01
  0.12679903E-01  0.18756965E-02  0.18722574E-01
 -0.73255013E-03 -0.36996158E-02  0.98878560E-03
 -0.62676320E-03 -0.44494115E-02 -0.74695680E-02
 -0.52450514E-03 -0.62690923E-02 -0.10007061E-01
 -0.66895709E-02  0.12406243E-01 -0.63381389E-02
 -0.31230939E-03 -0.17560038E-01  0.62698841E-02
 -0.60930435E-02  0.71529261E-03 -0.68542339E-02
 -0.15078204E-01  0.79449855E-03 -0.40442316E-02
 -0.30303686E-02  0.18189984E-01 -0.57385731E-02
  0.10278116E-01  0.17108370E-02 -0.31736014E-02
 -0.83212704E-02  0.29993119E-02 -0.46507860E-02
 -0.25198361E-02  0.10339849E-01 -0.74451204E-02
  0.36982604E-02  0.84045946E-02 -0.23519496E-01
  0.86035031E-02  0.93298515E-02  0.16873725E-01
  0.79923485E-02  0.95780231E-03 -0.36430052E-03
 -0.17251644E-02  0.86468483E-02 -0.17788029E-01
 -0.63138933E-02  0.87426522E-03  0.65263257E-03
  0.47404079E-02  0.20391432E-03 -0.69385649E-02
 -0.44479641E-02  0.52271908E-02 -0.14293241E-01
 -0.10465653E-01  0.99674613E-02  0.13833666E-01
  0.58329061E-02  0.20451978E-02  0.11874103E-02
  0.88301274E-02  0.13045092E-01  0.18688302E-01
 -0.10580168E-01 -0.31742247E-02 -0.10498903E-02
 -0.72532464E-03 -0.24791294E-02  0.27232354E-02
 -0.25297541E-02  0.33198527E-02 -0.42648602E-02
 -0.40780717E-02  0.39835663E-02 -0.12801494E-01
  0.54446878E-02 -0.17547883E-01  0.66804481E-02
  0.69838984E-02  0.19239386E-01  0.20937930E-02
 -0.93877787E-02 -0.13622315E-01  0.71978471E-02
 -0.58044117E-03 -0.10939004E-01  0.22150565E-02
  0.53480078E-02  0.14907494E-02  0.50323370E-02
 -0.97595183E-03 -0.61941822E-02 -0.24198938E-02
  0.34637266E-02 -0.72925461E-02  0.42292895E-02
 -0.18502236E-01  0.27554252E-02 -0.58043839E-02
 -0.85123215E-02 -0.24868803E-02  0.78070354E-02
 -0.23124161E-01  0.18305114E-01 -0.35510829E-02
  0.36741693E-02 -0.62621470E-02 -0.11863517E-01
 -0.25059329E-02 -0.32570087E-02 -0.42661729E-02
 -0.11729724E-03 -0.57429456E-02 -0.87226765E-03
  0.75109334E-03 -0.17010083E-02 -0.14127492E-03
 -0.27500124E-02  0.16439884E-02  0.14777479E-02
 -0.50694740E-02 -0.36556726E-02 -0.36101578E-03
  0.24439079E-02 -0.23634306E-02  0.63491968E-03
  0.76002151E-02  0.88555783E-03 -0.13242623E-02
  0.30358429E-02  0.17348074E-03  0.53899250E-02
 -0.48535666E-03  0.25951821E-02 -0.13862844E-02
  0.43761328E-02 -0.89280553E-03 -0.17674868E-02
  0.34584894E-02 -0.23339897E-02  0.47795850E-02
 -0.14312489E-02 -0.97956397E-04 -0.87791354E-03
 -0.33824519E-02  0.10163846E-02 -0.15459158E-02
  0.23358206E-02  0.29875413E-02  0.39382892E-02
 -0.69176434E-02 -0.13287493E-02  0.28579589E-02
  0.10381161E-02  0.17921023E-02  0.23536700E-02
 -0.30390533E-03  0.17988602E-02 -0.10101810E-02
  0.28518687E-02  0.48841891E-02  0.51269389E-02
  0.25990303E-02  0.32282144E-02 -0.21164867E-03
 -0.24856544E-02 -0.10639685E-02 -0.24374521E-02
  0.40310338E-02  0.22354657E-03  0.50167142E-02
  0.12565630E-02 -0.28840571E-02  0.10573322E-02
  0.33403422E-02  0.77116200E-03  0.43571575E-03
  0.70291253E-02 -0.32751943E-02 -0.11913871E-02
  0.19044608E-02  0.83804297E-03 -0.39272347E-02
 -0.30829815E-02  0.50191389E-02  0.43744100E-02
 -0.28016002E-02  0.47574471E-02 -0.39685588E-02
 -0.95325370E-03  0.11727217E-01  0.39590589E-02
 -0.58719910E-02 -0.21045971E-02  0.11796641E-02
 -0.42155039E-02  0.36260291E-02 -0.20909637E-03
  0.63353727E-03 -0.60163678E-02  0.58427434E-03
 -0.48997871E-02 -0.58763230E-02 -0.36551165E-02
 -0.48538827E-02 -0.24775055E-02 -0.25528671E-02
  0.12072576E-02 -0.55108008E-02  0.23700114E-02
 -0.18863525E-02  0.73141145E-02 -0.42700649E-02
 -0.35934532E-03  0.13684097E-03  0.19597316E-02
 -0.41258159E-02 -0.63733324E-02 -0.58674199E-02
 -0.35844415E-03  0.87708572E-03  0.69198038E-03
  0.27915927E-02  0.49855214E-02 -0.45786427E-04
 -0.19671231E-03 -0.57542032E-02  0.95699283E-04
 -0.37243395E-02 -0.10151776E-01  0.27649908E-01
  0.11992348E-01 -0.11817764E-01 -0.11606955E-02
  0.35468832E-02  0.13454403E-02 -0.83705108E-02
  0.16393654E-02  0.68256504E-02 -0.78667274E-02
 -0.10054786E-01  0.77408089E-02  0.35284139E-01
  0.22925119E-01 -0.11921110E-01  0.43586250E-02
  0.18053672E-01 -0.50580913E-02 -0.26459291E-02
  0.12378688E-01 -0.16446783E-01 -0.81311957E-02
  0.11041860E-01 -0.15825879E-01  0.13903629E-01
 -0.41422059E-02 -0.17044426E-01 -0.34406446E-02
  0.10827584E-01  0.65300006E-02 -0.17206399E-01
 -0.10149921E-01 -0.49861639E-02  0.60874698E-02
  0.23274643E-01 -0.15825445E-01  0.58534147E-04
  0.14431751E-02 -0.89734721E-03  0.13368559E-01
 -0.40010761E-02  0.13573270E-01  0.17679085E-02
  0.41389453E-02 -0.14809654E-01  0.26166312E-02
 -0.24402471E-03 -0.15620652E-01  0.14664449E-01
  0.12012011E-02  0.24380040E-01  0.14526565E-01
  0.56556295E-02  0.11411898E-01  0.12180775E-01
 -0.16871653E-01 -0.51860867E-02  0.30299511E-02
 -0.85436628E-02  0.93771384E-02 -0.16854882E-01
 -0.27925125E-01 -0.17530654E-01  0.93548359E-02
  0.54428592E-02  0.18152740E-02  0.92486475E-02
  0.21836534E-01  0.16234423E-01 -0.10024309E-01
  0.14738541E-01 -0.12790863E-01 -0.92945667E-02
  0.28746537E-01 -0.53166351E-02 -0.65187100E-02
 -0.37221858E-01 -0.11554257E-01  0.14687588E-01
  0.97278212E-02 -0.14015388E-01  0.13272453E-01
 -0.17289416E-02  0.60014590E-02  0.79586652E-02
  0.25085215E-02 -0.11553805E-01  0.15914435E-02
 -0.79275943E-02 -0.19187790E-01 -0.54426845E-02
  0.46954000E-02 -0.15563329E-01  0.12484609E-02
  0.86693714E-02 -0.12295490E-01  0.16428592E-01
 -0.47761482E-02  0.16122342E-02 -0.73264586E-02
  0.58336495E-02  0.70630398E-02  0.42766658E-02
  0.40252487E-02 -0.78065386E-02 -0.34898999E-02
 -0.18419004E-01  0.37050357E-02 -0.77248846E-02
 -0.23916636E-01  0.43391429E-02  0.12888594E-01
 -0.61654286E-02  0.20534933E-01  0.10278515E-01
  0.63905945E-02  0.21965336E-02 -0.49161833E-02
  0.76775880E-02 -0.30274724E-02  0.11308462E-01
 -0.18572465E-02  0.27908036E-01  0.18973701E-02
 -0.10871852E-01  0.78918149E-02 -0.12559459E-01
  0.16987379E-01 -0.25347397E-03 -0.47954130E-03
 -0.58903246E-02 -0.30625167E-02 -0.16711974E-01
 -0.10416862E-01 -0.17915966E-01  0.19001923E-01
  0.37135729E-03  0.82126090E-02  0.27591720E-02
  0.49801475E-02  0.32846218E-02  0.16588089E-01
 -0.75590500E-02  0.82360533E-02  0.12609236E-01
  0.11475284E-01 -0.16818433E-02 -0.20890367E-01
  0.63226478E-03 -0.41722062E-02 -0.13895786E-01
  0.11314883E-01 -0.62270067E-02 -0.31954579E-02
 
           1
   2.00000000000000     
 -0.52016384E+00  0.71114931E-02  0.69943846E-02 -0.52721678E+00
  0.99281457E-01  0.19848846E+00  0.29303014E+00
  0.90352146E+00  0.81249532E+00  0.73241289E+00
  0.37849051E+00  0.80394684E+00  0.79212516E+00
  0.59082756E+00  0.19565694E+00  0.22768710E+00
  0.89353526E+00  0.71329954E+00  0.21776596E+00
  0.95233896E-01  0.30137194E+00  0.76760628E+00
  0.59647446E+00  0.31467507E+00  0.71869298E+00
  0.40550635E+00  0.69129132E+00  0.27343484E+00
  0.30676296E+00  0.97509725E-01  0.21456084E+00
  0.71745132E+00  0.91497932E+00  0.80803840E+00
  0.78183035E+00  0.39097843E+00  0.78665874E+00
  0.21994296E+00  0.59325700E+00  0.19714726E+00
  0.21427781E+00  0.91270253E+00  0.69546354E+00
  0.78784131E+00  0.10053503E+00  0.30652950E+00
  0.68201451E+00  0.61868529E+00  0.30489514E+00
  0.29609364E+00  0.40802437E+00  0.71626796E+00
  0.19315295E+00  0.25446453E+00  0.11245693E+00
  0.80657708E+00  0.74313162E+00  0.90644487E+00
  0.80814815E+00  0.78770841E+00  0.39914052E+00
  0.21310805E+00  0.22496420E+00  0.59561985E+00
  0.68870296E+00  0.20493221E+00  0.88914713E+00
  0.30131205E+00  0.75247498E+00  0.91604411E-01
  0.29022121E+00  0.72963224E+00  0.58822880E+00
  0.66587449E+00  0.27320085E+00  0.39812689E+00
  0.93883430E+00  0.33780134E+00  0.98378921E+00
  0.73755371E-01  0.63384064E+00  0.92577782E-02
  0.56425288E+00  0.64599730E+00  0.47652836E+00
  0.47480473E+00  0.35969242E+00  0.55193022E+00
  0.45547456E+00  0.14330471E+00  0.23181588E-01
  0.57283230E+00  0.80866804E+00  0.98142926E+00
  0.61595620E-01  0.87251278E+00  0.53648303E+00
  0.93549102E+00  0.15002024E+00  0.45729275E+00
  0.87384352E+00  0.54140888E+00  0.69891335E-01
  0.15090053E+00  0.44054507E+00  0.94287859E+00
  0.15329344E+00  0.37262459E-01  0.46137743E+00
  0.87011409E+00  0.96864107E+00  0.56532360E+00
  0.67839105E+00  0.48906812E+00  0.54646279E+00
  0.37700913E+00  0.53964486E+00  0.41859331E+00
  0.34569215E+00  0.96296091E+00  0.94378138E+00
  0.65522369E+00  0.24361764E-01  0.54982893E-01
  0.23297218E-01  0.42954606E+00  0.15317312E+00
  0.95423450E+00  0.52860832E+00  0.84510245E+00
  0.55743850E+00  0.38865916E-01  0.85524233E+00
  0.44903672E+00  0.93635915E+00  0.15056612E+00
  0.97023965E+00  0.93714578E+00  0.35975784E+00
  0.27857051E-01  0.74087206E-01  0.65329802E+00
  0.48851141E+00  0.55699117E+00  0.64668180E+00
  0.53875850E+00  0.43485224E+00  0.34582533E+00
  0.58428799E+00  0.71194116E+00  0.77677175E+00
  0.38888279E+00  0.28594390E+00  0.22315013E+00
  0.90278256E+00  0.29059041E+00  0.27550357E+00
  0.98458333E-01  0.70618656E+00  0.71659117E+00
  0.39765078E+00  0.16846517E+00  0.71326668E+00
  0.58355363E+00  0.82468130E+00  0.26341398E+00
  0.94448493E-01  0.80426875E+00  0.22222881E+00
  0.88864547E+00  0.18798248E+00  0.78235000E+00
  0.78794614E+00  0.63199270E+00  0.67389230E+00
  0.21466991E+00  0.41448580E+00  0.33602868E+00
  0.26727060E+00  0.88238582E+00  0.29565803E+00
  0.71493537E+00  0.98864701E-01  0.70547474E+00
  0.72865239E+00  0.41144952E+00  0.18514170E+00
  0.30608531E+00  0.59051090E+00  0.78282905E+00
  0.21787883E+00  0.11776556E+00  0.81428114E+00
  0.77191834E+00  0.90546855E+00  0.19559159E+00
  0.69350673E+00  0.81623253E+00  0.60599521E+00
  0.30929122E+00  0.21135669E+00  0.41270776E+00
  0.33288478E+00  0.29480804E+00  0.90670300E+00
  0.68272377E+00  0.70123919E+00  0.86313364E-01
  0.20342548E+00  0.70585595E+00  0.39408323E+00
  0.79413245E+00  0.27980242E+00  0.59677271E+00
  0.76581378E+00  0.21087180E+00  0.97313395E-01
  0.18329322E+00  0.76895405E+00  0.88501781E+00
  0.44895110E+00  0.84985385E+00  0.47444981E+00
  0.53893073E+00  0.15167500E+00  0.53158975E+00
  0.42076297E-01  0.15941708E+00  0.95684409E+00
  0.94661071E+00  0.85844929E+00  0.49326205E-01
  0.95261516E+00  0.67333801E+00  0.52446042E+00
  0.25307501E-01  0.34757988E+00  0.48321415E+00
  0.55133866E+00  0.33309522E+00  0.29155130E-01
  0.44218015E+00  0.63654563E+00  0.95982164E+00
  0.34326076E+00  0.62541715E-01  0.58333876E+00
  0.64265727E+00  0.95717847E+00  0.45535680E+00
  0.66493869E+00  0.54107806E+00  0.93403908E+00
  0.36050157E+00  0.46864587E+00  0.41271966E-01
  0.15443807E+00  0.97230169E+00  0.66822256E-01
  0.86321128E+00  0.33494419E-01  0.94680928E+00
  0.85787216E+00  0.46251012E+00  0.44286460E+00
  0.16791738E+00  0.52745086E+00  0.54884948E+00
  0.54583362E+00  0.97941798E+00  0.64677081E+00
  0.48163292E+00  0.35976973E-01  0.33894453E+00
  0.16650555E-01  0.54395411E+00  0.33589266E+00
  0.97108121E+00  0.45404908E+00  0.63967518E+00
  0.48146998E+00  0.47132796E+00  0.83266639E+00
  0.53674756E+00  0.53840885E+00  0.13121206E+00
  0.95743085E+00  0.60415620E-01  0.13351926E+00
  0.35397365E-01  0.93996523E+00  0.84757757E+00
  0.11804278E+00  0.99188031E+00  0.24655436E+00
  0.88306686E+00  0.99622703E+00  0.75948353E+00
  0.36535582E+00  0.99977166E+00  0.75449441E+00
  0.61780131E+00  0.99715074E+00  0.26146791E+00
  0.87600337E+00  0.49151524E+00  0.25843025E+00
  0.12256538E+00  0.51131376E+00  0.75241712E+00
  0.63294677E+00  0.50253469E+00  0.73783803E+00
  0.37915326E+00  0.51256214E+00  0.24014278E+00
  0.26499454E+00  0.12064239E+00  0.66601026E-03
  0.73290208E+00  0.87131572E+00  0.35637619E-02
  0.74548977E+00  0.37955165E+00  0.99500692E+00
  0.24360407E+00  0.59703939E+00  0.50632419E-02
  0.26235228E+00  0.86808800E+00  0.50025773E+00
  0.73705512E+00  0.12891426E+00  0.49834965E+00
  0.74918216E+00  0.64124571E+00  0.49934656E+00
  0.25656210E+00  0.38361956E+00  0.50248420E+00
  0.99415959E+00  0.24641133E+00  0.12398377E+00
  0.41431782E-03  0.75125554E+00  0.88157292E+00
  0.49973737E-02  0.77027458E+00  0.38138489E+00
  0.97220653E+00  0.27114375E+00  0.62340512E+00
  0.51136406E+00  0.23084340E+00  0.85868763E+00
  0.49774362E+00  0.71987636E+00  0.12257657E+00
  0.51085879E+00  0.76050881E+00  0.63641802E+00
  0.50082516E+00  0.24676915E+00  0.37990131E+00
  0.88884900E-02  0.12287186E-02  0.99108272E+00
  0.49418131E+00  0.28191056E-02  0.49167439E+00
  0.63428817E-02  0.50903320E+00  0.47651272E+00
  0.49832840E+00  0.49756792E+00  0.97681924E+00
  0.74076374E+00  0.24648101E+00  0.25005928E+00
  0.24394785E+00  0.74410550E+00  0.75259596E+00
  0.74751316E+00  0.76309337E+00  0.75125992E+00
  0.25534800E+00  0.25142844E+00  0.25926542E+00
  0.24674923E+00  0.25500274E+00  0.74267881E+00
  0.74281546E+00  0.74694059E+00  0.24500147E+00
  0.23465801E+00  0.74473031E+00  0.24493548E+00
  0.74185577E+00  0.24824514E+00  0.75013830E+00
  0.51574741E+00  0.49998026E+00  0.49392577E+00
  0.14158626E-01  0.49750615E+00  0.18502521E-01
  0.50305961E+00  0.97804226E+00  0.80363478E-02
  0.12364302E-01  0.97788011E-02  0.51712964E+00
  0.33717187E+00  0.45390117E-01  0.34032786E+00
  0.94762877E+00  0.66571077E+00  0.65422271E+00
  0.80546070E+00  0.52480145E-01  0.15196498E+00
  0.83275549E+00  0.43113285E+00  0.57556532E+00
  0.63570829E+00  0.81708717E+00  0.42866795E+00
  0.38313291E+00  0.68831065E+00  0.43785374E+00
  0.53845936E+00  0.65334176E+00  0.34560702E+00
  0.47839007E+00  0.76133707E+00  0.88297910E+00
  0.44261555E+00  0.38552048E+00  0.68189557E+00
  0.16306966E+00  0.90661640E+00  0.91039065E+00
  0.93002180E+00  0.38566165E+00  0.82780700E+00
  0.73169586E-01  0.84502384E+00  0.67073986E+00
  0.82601797E+00  0.92095033E+00  0.34699089E+00
  0.55992790E+00  0.27737858E+00  0.60693595E+00
  0.40455716E+00  0.21036273E+00  0.58695949E+00
  0.64418270E+00  0.68264724E+00  0.95465882E+00
  0.12918209E+00  0.26248388E+00  0.94097865E+00
  0.43419978E+00  0.10391818E+00  0.18186394E+00
  0.59780972E+00  0.16286919E+00  0.60566530E-01
  0.59903057E+00  0.47351653E+00  0.23433012E+00
  0.17859160E+00  0.47362491E+00  0.20369749E+00
  0.80456670E-01  0.35520141E+00  0.33385604E+00
  0.39154307E-01  0.64567904E+00  0.20061236E+00
  0.80058073E+00  0.61024715E+00  0.95495936E+00
  0.69582571E+00  0.55718164E+00  0.12744496E+00
  0.36194316E+00  0.57095840E+00  0.63832754E+00
  0.84077697E-01  0.82618733E+00  0.93161790E-01
  0.92947372E+00  0.90891872E+00  0.17537658E+00
  0.74776817E+00  0.90086500E+00  0.52141863E+00
  0.27120503E-01  0.17763222E+00  0.81357329E+00
  0.69990161E+00  0.67315922E-01  0.91262841E+00
  0.12049296E+00  0.55933507E-01  0.76159671E+00
  0.31000656E+00  0.93426916E+00  0.14576918E+00
  0.90933173E+00  0.31496248E+00  0.40956486E+00
  0.53013698E+00  0.30172380E+00  0.16407732E+00
  0.34026072E+00  0.78092639E+00  0.94232232E+00
  0.32819220E+00  0.45415670E+00  0.83144295E+00
  0.25641021E+00  0.36438043E+00  0.50387782E-01
  0.92937848E+00  0.12380570E+00  0.33882279E+00
  0.89559731E+00  0.17184330E+00  0.93780565E+00
  0.89411642E+00  0.51334294E+00  0.72931287E+00
  0.41340643E+00  0.26432846E+00  0.25870312E-01
  0.19668042E+00  0.55573838E+00  0.41519343E+00
  0.70789486E+00  0.41575195E+00  0.41334599E+00
  0.90411026E+00  0.83372325E+00  0.57235819E+00