LLZO_Ia3d_Al45_partial_00.vasp
1.0
26.1861400604 0.0 0.0
0.0 26.1861400604 0.0
0.0 0.0 26.1861400604
O La Zr Li Al
768 192 128 340 36
Direct
0.0500000005 0.0978000015 0.140799999
0.449999988 0.4021999835 0.359200001
0.200000003 0.4021999835 0.390799999
0.300000012 0.0978000015 0.109200001
0.449999988 0.3478000165 0.109200001
0.0500000005 0.1521999985 0.390799999
0.300000012 0.1521999985 0.359200001
0.200000003 0.3478000165 0.140799999
0.140799999 0.0500000005 0.0978000015
0.359200001 0.449999988 0.4021999835
0.390799999 0.200000003 0.4021999835
0.109200001 0.300000012 0.0978000015
0.109200001 0.449999988 0.3478000165
0.390799999 0.0500000005 0.1521999985
0.359200001 0.300000012 0.1521999985
0.140799999 0.200000003 0.3478000165
0.0978000015 0.140799999 0.0500000005
0.4021999835 0.359200001 0.449999988
0.4021999835 0.390799999 0.200000003
0.0978000015 0.109200001 0.300000012
0.3478000165 0.109200001 0.449999988
0.1521999985 0.390799999 0.0500000005
0.1521999985 0.359200001 0.300000012
0.3478000165 0.140799999 0.200000003
0.4728000165 0.174999997 0.484200001
0.0271999985 0.324999988 0.015799999
0.2771999835 0.324999988 0.234200001
0.2228000015 0.174999997 0.265799999
0.2228000015 0.075000003 0.015799999
0.2771999835 0.425000012 0.484200001
0.0271999985 0.425000012 0.265799999
0.4728000165 0.075000003 0.234200001
0.425000012 0.265799999 0.0271999985
0.075000003 0.234200001 0.4728000165
0.075000003 0.015799999 0.2228000015
0.425000012 0.484200001 0.2771999835
0.324999988 0.234200001 0.2771999835
0.174999997 0.265799999 0.2228000015
0.174999997 0.484200001 0.4728000165
0.324999988 0.015799999 0.0271999985
0.015799999 0.2228000015 0.075000003
0.484200001 0.2771999835 0.425000012
0.265799999 0.0271999985 0.425000012
0.234200001 0.4728000165 0.075000003
0.484200001 0.4728000165 0.174999997
0.015799999 0.0271999985 0.324999988
0.234200001 0.2771999835 0.324999988
0.265799999 0.2228000015 0.174999997
0.300000012 0.3478000165 0.390799999
0.200000003 0.1521999985 0.109200001
0.449999988 0.1521999985 0.140799999
0.0500000005 0.3478000165 0.359200001
0.200000003 0.0978000015 0.359200001
0.300000012 0.4021999835 0.140799999
0.0500000005 0.4021999835 0.109200001
0.449999988 0.0978000015 0.390799999
0.390799999 0.300000012 0.3478000165
0.109200001 0.200000003 0.1521999985
0.140799999 0.449999988 0.1521999985
0.359200001 0.0500000005 0.3478000165
0.359200001 0.200000003 0.0978000015
0.140799999 0.300000012 0.4021999835
0.109200001 0.0500000005 0.4021999835
0.390799999 0.449999988 0.0978000015
0.3478000165 0.390799999 0.300000012
0.1521999985 0.109200001 0.200000003
0.1521999985 0.140799999 0.449999988
0.3478000165 0.359200001 0.0500000005
0.0978000015 0.359200001 0.200000003
0.4021999835 0.140799999 0.300000012
0.4021999835 0.109200001 0.0500000005
0.0978000015 0.390799999 0.449999988
0.2228000015 0.425000012 0.234200001
0.2771999835 0.075000003 0.265799999
0.0271999985 0.075000003 0.484200001
0.4728000165 0.425000012 0.015799999
0.4728000165 0.324999988 0.265799999
0.0271999985 0.174999997 0.234200001
0.2771999835 0.174999997 0.015799999
0.2228000015 0.324999988 0.484200001
0.174999997 0.015799999 0.2771999835
0.324999988 0.484200001 0.2228000015
0.324999988 0.265799999 0.4728000165
0.174999997 0.234200001 0.0271999985
0.075000003 0.484200001 0.0271999985
0.425000012 0.015799999 0.4728000165
0.425000012 0.234200001 0.2228000015
0.075000003 0.265799999 0.2771999835
0.265799999 0.4728000165 0.324999988
0.234200001 0.0271999985 0.174999997
0.015799999 0.2771999835 0.174999997
0.484200001 0.2228000015 0.324999988
0.234200001 0.2228000015 0.425000012
0.265799999 0.2771999835 0.075000003
0.484200001 0.0271999985 0.075000003
0.015799999 0.4728000165 0.425000012
0.0500000005 0.0978000015 0.640799999
0.449999988 0.4021999835 0.859200001
0.200000003 0.4021999835 0.890799999
0.300000012 0.0978000015 0.609200001
0.449999988 0.3478000165 0.609200001
0.0500000005 0.1521999985 0.890799999
0.300000012 0.1521999985 0.859200001
0.200000003 0.3478000165 0.640799999
0.140799999 0.0500000005 0.5978000015
0.359200001 0.449999988 0.9021999835000001
0.390799999 0.200000003 0.9021999835000001
0.109200001 0.300000012 0.5978000015
0.109200001 0.449999988 0.8478000164999999
0.390799999 0.0500000005 0.6521999985
0.359200001 0.300000012 0.6521999985
0.140799999 0.200000003 0.8478000164999999
0.0978000015 0.140799999 0.5500000005
0.4021999835 0.359200001 0.9499999880000001
0.4021999835 0.390799999 0.700000003
0.0978000015 0.109200001 0.8000000119999999
0.3478000165 0.109200001 0.9499999880000001
0.1521999985 0.390799999 0.5500000005
0.1521999985 0.359200001 0.8000000119999999
0.3478000165 0.140799999 0.700000003
0.4728000165 0.174999997 0.984200001
0.0271999985 0.324999988 0.515799999
0.2771999835 0.324999988 0.734200001
0.2228000015 0.174999997 0.765799999
0.2228000015 0.075000003 0.515799999
0.2771999835 0.425000012 0.984200001
0.0271999985 0.425000012 0.765799999
0.4728000165 0.075000003 0.734200001
0.425000012 0.265799999 0.5271999985
0.075000003 0.234200001 0.9728000164999999
0.075000003 0.015799999 0.7228000015
0.425000012 0.484200001 0.7771999835000001
0.324999988 0.234200001 0.7771999835000001
0.174999997 0.265799999 0.7228000015
0.174999997 0.484200001 0.9728000164999999
0.324999988 0.015799999 0.5271999985
0.015799999 0.2228000015 0.575000003
0.484200001 0.2771999835 0.9250000119999999
0.265799999 0.0271999985 0.9250000119999999
0.234200001 0.4728000165 0.575000003
0.484200001 0.4728000165 0.674999997
0.015799999 0.0271999985 0.8249999880000001
0.234200001 0.2771999835 0.8249999880000001
0.265799999 0.2228000015 0.674999997
0.300000012 0.3478000165 0.890799999
0.200000003 0.1521999985 0.609200001
0.449999988 0.1521999985 0.640799999
0.0500000005 0.3478000165 0.859200001
0.200000003 0.0978000015 0.859200001
0.300000012 0.4021999835 0.640799999
0.0500000005 0.4021999835 0.609200001
0.449999988 0.0978000015 0.890799999
0.390799999 0.300000012 0.8478000164999999
0.109200001 0.200000003 0.6521999985
0.140799999 0.449999988 0.6521999985
0.359200001 0.0500000005 0.8478000164999999
0.359200001 0.200000003 0.5978000015
0.140799999 0.300000012 0.9021999835000001
0.109200001 0.0500000005 0.9021999835000001
0.390799999 0.449999988 0.5978000015
0.3478000165 0.390799999 0.8000000119999999
0.1521999985 0.109200001 0.700000003
0.1521999985 0.140799999 0.9499999880000001
0.3478000165 0.359200001 0.5500000005
0.0978000015 0.359200001 0.700000003
0.4021999835 0.140799999 0.8000000119999999
0.4021999835 0.109200001 0.5500000005
0.0978000015 0.390799999 0.9499999880000001
0.2228000015 0.425000012 0.734200001
0.2771999835 0.075000003 0.765799999
0.0271999985 0.075000003 0.984200001
0.4728000165 0.425000012 0.515799999
0.4728000165 0.324999988 0.765799999
0.0271999985 0.174999997 0.734200001
0.2771999835 0.174999997 0.515799999
0.2228000015 0.324999988 0.984200001
0.174999997 0.015799999 0.7771999835000001
0.324999988 0.484200001 0.7228000015
0.324999988 0.265799999 0.9728000164999999
0.174999997 0.234200001 0.5271999985
0.075000003 0.484200001 0.5271999985
0.425000012 0.015799999 0.9728000164999999
0.425000012 0.234200001 0.7228000015
0.075000003 0.265799999 0.7771999835000001
0.265799999 0.4728000165 0.8249999880000001
0.234200001 0.0271999985 0.674999997
0.015799999 0.2771999835 0.674999997
0.484200001 0.2228000015 0.8249999880000001
0.234200001 0.2228000015 0.9250000119999999
0.265799999 0.2771999835 0.575000003
0.484200001 0.0271999985 0.575000003
0.015799999 0.4728000165 0.9250000119999999
0.0500000005 0.5978000015 0.140799999
0.449999988 0.9021999835000001 0.359200001
0.200000003 0.9021999835000001 0.390799999
0.300000012 0.5978000015 0.109200001
0.449999988 0.8478000164999999 0.109200001
0.0500000005 0.6521999985 0.390799999
0.300000012 0.6521999985 0.359200001
0.200000003 0.8478000164999999 0.140799999
0.140799999 0.5500000005 0.0978000015
0.359200001 0.9499999880000001 0.4021999835
0.390799999 0.700000003 0.4021999835
0.109200001 0.8000000119999999 0.0978000015
0.109200001 0.9499999880000001 0.3478000165
0.390799999 0.5500000005 0.1521999985
0.359200001 0.8000000119999999 0.1521999985
0.140799999 0.700000003 0.3478000165
0.0978000015 0.640799999 0.0500000005
0.4021999835 0.859200001 0.449999988
0.4021999835 0.890799999 0.200000003
0.0978000015 0.609200001 0.300000012
0.3478000165 0.609200001 0.449999988
0.1521999985 0.890799999 0.0500000005
0.1521999985 0.859200001 0.300000012
0.3478000165 0.640799999 0.200000003
0.4728000165 0.674999997 0.484200001
0.0271999985 0.8249999880000001 0.015799999
0.2771999835 0.8249999880000001 0.234200001
0.2228000015 0.674999997 0.265799999
0.2228000015 0.575000003 0.015799999
0.2771999835 0.9250000119999999 0.484200001
0.0271999985 0.9250000119999999 0.265799999
0.4728000165 0.575000003 0.234200001
0.425000012 0.765799999 0.0271999985
0.075000003 0.734200001 0.4728000165
0.075000003 0.515799999 0.2228000015
0.425000012 0.984200001 0.2771999835
0.324999988 0.734200001 0.2771999835
0.174999997 0.765799999 0.2228000015
0.174999997 0.984200001 0.4728000165
0.324999988 0.515799999 0.0271999985
0.015799999 0.7228000015 0.075000003
0.484200001 0.7771999835000001 0.425000012
0.265799999 0.5271999985 0.425000012
0.234200001 0.9728000164999999 0.075000003
0.484200001 0.9728000164999999 0.174999997
0.015799999 0.5271999985 0.324999988
0.234200001 0.7771999835000001 0.324999988
0.265799999 0.7228000015 0.174999997
0.300000012 0.8478000164999999 0.390799999
0.200000003 0.6521999985 0.109200001
0.449999988 0.6521999985 0.140799999
0.0500000005 0.8478000164999999 0.359200001
0.200000003 0.5978000015 0.359200001
0.300000012 0.9021999835000001 0.140799999
0.0500000005 0.9021999835000001 0.109200001
0.449999988 0.5978000015 0.390799999
0.390799999 0.8000000119999999 0.3478000165
0.109200001 0.700000003 0.1521999985
0.140799999 0.9499999880000001 0.1521999985
0.359200001 0.5500000005 0.3478000165
0.359200001 0.700000003 0.0978000015
0.140799999 0.8000000119999999 0.4021999835
0.109200001 0.5500000005 0.4021999835
0.390799999 0.9499999880000001 0.0978000015
0.3478000165 0.890799999 0.300000012
0.1521999985 0.609200001 0.200000003
0.1521999985 0.640799999 0.449999988
0.3478000165 0.859200001 0.0500000005
0.0978000015 0.859200001 0.200000003
0.4021999835 0.640799999 0.300000012
0.4021999835 0.609200001 0.0500000005
0.0978000015 0.890799999 0.449999988
0.2228000015 0.9250000119999999 0.234200001
0.2771999835 0.575000003 0.265799999
0.0271999985 0.575000003 0.484200001
0.4728000165 0.9250000119999999 0.015799999
0.4728000165 0.8249999880000001 0.265799999
0.0271999985 0.674999997 0.234200001
0.2771999835 0.674999997 0.015799999
0.2228000015 0.8249999880000001 0.484200001
0.174999997 0.515799999 0.2771999835
0.324999988 0.984200001 0.2228000015
0.324999988 0.765799999 0.4728000165
0.174999997 0.734200001 0.0271999985
0.075000003 0.984200001 0.0271999985
0.425000012 0.515799999 0.4728000165
0.425000012 0.734200001 0.2228000015
0.075000003 0.765799999 0.2771999835
0.265799999 0.9728000164999999 0.324999988
0.234200001 0.5271999985 0.174999997
0.015799999 0.7771999835000001 0.174999997
0.484200001 0.7228000015 0.324999988
0.234200001 0.7228000015 0.425000012
0.265799999 0.7771999835000001 0.075000003
0.484200001 0.5271999985 0.075000003
0.015799999 0.9728000164999999 0.425000012
0.0500000005 0.5978000015 0.640799999
0.449999988 0.9021999835000001 0.859200001
0.200000003 0.9021999835000001 0.890799999
0.300000012 0.5978000015 0.609200001
0.449999988 0.8478000164999999 0.609200001
0.0500000005 0.6521999985 0.890799999
0.300000012 0.6521999985 0.859200001
0.200000003 0.8478000164999999 0.640799999
0.140799999 0.5500000005 0.5978000015
0.359200001 0.9499999880000001 0.9021999835000001
0.390799999 0.700000003 0.9021999835000001
0.109200001 0.8000000119999999 0.5978000015
0.109200001 0.9499999880000001 0.8478000164999999
0.390799999 0.5500000005 0.6521999985
0.359200001 0.8000000119999999 0.6521999985
0.140799999 0.700000003 0.8478000164999999
0.0978000015 0.640799999 0.5500000005
0.4021999835 0.859200001 0.9499999880000001
0.4021999835 0.890799999 0.700000003
0.0978000015 0.609200001 0.8000000119999999
0.3478000165 0.609200001 0.9499999880000001
0.1521999985 0.890799999 0.5500000005
0.1521999985 0.859200001 0.8000000119999999
0.3478000165 0.640799999 0.700000003
0.4728000165 0.674999997 0.984200001
0.0271999985 0.8249999880000001 0.515799999
0.2771999835 0.8249999880000001 0.734200001
0.2228000015 0.674999997 0.765799999
0.2228000015 0.575000003 0.515799999
0.2771999835 0.9250000119999999 0.984200001
0.0271999985 0.9250000119999999 0.765799999
0.4728000165 0.575000003 0.734200001
0.425000012 0.765799999 0.5271999985
0.075000003 0.734200001 0.9728000164999999
0.075000003 0.515799999 0.7228000015
0.425000012 0.984200001 0.7771999835000001
0.324999988 0.734200001 0.7771999835000001
0.174999997 0.765799999 0.7228000015
0.174999997 0.984200001 0.9728000164999999
0.324999988 0.515799999 0.5271999985
0.015799999 0.7228000015 0.575000003
0.484200001 0.7771999835000001 0.9250000119999999
0.265799999 0.5271999985 0.9250000119999999
0.234200001 0.9728000164999999 0.575000003
0.484200001 0.9728000164999999 0.674999997
0.015799999 0.5271999985 0.8249999880000001
0.234200001 0.7771999835000001 0.8249999880000001
0.265799999 0.7228000015 0.674999997
0.300000012 0.8478000164999999 0.890799999
0.200000003 0.6521999985 0.609200001
0.449999988 0.6521999985 0.640799999
0.0500000005 0.8478000164999999 0.859200001
0.200000003 0.5978000015 0.859200001
0.300000012 0.9021999835000001 0.640799999
0.0500000005 0.9021999835000001 0.609200001
0.449999988 0.5978000015 0.890799999
0.390799999 0.8000000119999999 0.8478000164999999
0.109200001 0.700000003 0.6521999985
0.140799999 0.9499999880000001 0.6521999985
0.359200001 0.5500000005 0.8478000164999999
0.359200001 0.700000003 0.5978000015
0.140799999 0.8000000119999999 0.9021999835000001
0.109200001 0.5500000005 0.9021999835000001
0.390799999 0.9499999880000001 0.5978000015
0.3478000165 0.890799999 0.8000000119999999
0.1521999985 0.609200001 0.700000003
0.1521999985 0.640799999 0.9499999880000001
0.3478000165 0.859200001 0.5500000005
0.0978000015 0.859200001 0.700000003
0.4021999835 0.640799999 0.8000000119999999
0.4021999835 0.609200001 0.5500000005
0.0978000015 0.890799999 0.9499999880000001
0.2228000015 0.9250000119999999 0.734200001
0.2771999835 0.575000003 0.765799999
0.0271999985 0.575000003 0.984200001
0.4728000165 0.9250000119999999 0.515799999
0.4728000165 0.8249999880000001 0.765799999
0.0271999985 0.674999997 0.734200001
0.2771999835 0.674999997 0.515799999
0.2228000015 0.8249999880000001 0.984200001
0.174999997 0.515799999 0.7771999835000001
0.324999988 0.984200001 0.7228000015
0.324999988 0.765799999 0.9728000164999999
0.174999997 0.734200001 0.5271999985
0.075000003 0.984200001 0.5271999985
0.425000012 0.515799999 0.9728000164999999
0.425000012 0.734200001 0.7228000015
0.075000003 0.765799999 0.7771999835000001
0.265799999 0.9728000164999999 0.8249999880000001
0.234200001 0.5271999985 0.674999997
0.015799999 0.7771999835000001 0.674999997
0.484200001 0.7228000015 0.8249999880000001
0.234200001 0.7228000015 0.9250000119999999
0.265799999 0.7771999835000001 0.575000003
0.484200001 0.5271999985 0.575000003
0.015799999 0.9728000164999999 0.9250000119999999
0.5500000005 0.0978000015 0.140799999
0.9499999880000001 0.4021999835 0.359200001
0.700000003 0.4021999835 0.390799999
0.8000000119999999 0.0978000015 0.109200001
0.9499999880000001 0.3478000165 0.109200001
0.5500000005 0.1521999985 0.390799999
0.8000000119999999 0.1521999985 0.359200001
0.700000003 0.3478000165 0.140799999
0.640799999 0.0500000005 0.0978000015
0.859200001 0.449999988 0.4021999835
0.890799999 0.200000003 0.4021999835
0.609200001 0.300000012 0.0978000015
0.609200001 0.449999988 0.3478000165
0.890799999 0.0500000005 0.1521999985
0.859200001 0.300000012 0.1521999985
0.640799999 0.200000003 0.3478000165
0.5978000015 0.140799999 0.0500000005
0.9021999835000001 0.359200001 0.449999988
0.9021999835000001 0.390799999 0.200000003
0.5978000015 0.109200001 0.300000012
0.8478000164999999 0.109200001 0.449999988
0.6521999985 0.390799999 0.0500000005
0.6521999985 0.359200001 0.300000012
0.8478000164999999 0.140799999 0.200000003
0.9728000164999999 0.174999997 0.484200001
0.5271999985 0.324999988 0.015799999
0.7771999835000001 0.324999988 0.234200001
0.7228000015 0.174999997 0.265799999
0.7228000015 0.075000003 0.015799999
0.7771999835000001 0.425000012 0.484200001
0.5271999985 0.425000012 0.265799999
0.9728000164999999 0.075000003 0.234200001
0.9250000119999999 0.265799999 0.0271999985
0.575000003 0.234200001 0.4728000165
0.575000003 0.015799999 0.2228000015
0.9250000119999999 0.484200001 0.2771999835
0.8249999880000001 0.234200001 0.2771999835
0.674999997 0.265799999 0.2228000015
0.674999997 0.484200001 0.4728000165
0.8249999880000001 0.015799999 0.0271999985
0.515799999 0.2228000015 0.075000003
0.984200001 0.2771999835 0.425000012
0.765799999 0.0271999985 0.425000012
0.734200001 0.4728000165 0.075000003
0.984200001 0.4728000165 0.174999997
0.515799999 0.0271999985 0.324999988
0.734200001 0.2771999835 0.324999988
0.765799999 0.2228000015 0.174999997
0.8000000119999999 0.3478000165 0.390799999
0.700000003 0.1521999985 0.109200001
0.9499999880000001 0.1521999985 0.140799999
0.5500000005 0.3478000165 0.359200001
0.700000003 0.0978000015 0.359200001
0.8000000119999999 0.4021999835 0.140799999
0.5500000005 0.4021999835 0.109200001
0.9499999880000001 0.0978000015 0.390799999
0.890799999 0.300000012 0.3478000165
0.609200001 0.200000003 0.1521999985
0.640799999 0.449999988 0.1521999985
0.859200001 0.0500000005 0.3478000165
0.859200001 0.200000003 0.0978000015
0.640799999 0.300000012 0.4021999835
0.609200001 0.0500000005 0.4021999835
0.890799999 0.449999988 0.0978000015
0.8478000164999999 0.390799999 0.300000012
0.6521999985 0.109200001 0.200000003
0.6521999985 0.140799999 0.449999988
0.8478000164999999 0.359200001 0.0500000005
0.5978000015 0.359200001 0.200000003
0.9021999835000001 0.140799999 0.300000012
0.9021999835000001 0.109200001 0.0500000005
0.5978000015 0.390799999 0.449999988
0.7228000015 0.425000012 0.234200001
0.7771999835000001 0.075000003 0.265799999
0.5271999985 0.075000003 0.484200001
0.9728000164999999 0.425000012 0.015799999
0.9728000164999999 0.324999988 0.265799999
0.5271999985 0.174999997 0.234200001
0.7771999835000001 0.174999997 0.015799999
0.7228000015 0.324999988 0.484200001
0.674999997 0.015799999 0.2771999835
0.8249999880000001 0.484200001 0.2228000015
0.8249999880000001 0.265799999 0.4728000165
0.674999997 0.234200001 0.0271999985
0.575000003 0.484200001 0.0271999985
0.9250000119999999 0.015799999 0.4728000165
0.9250000119999999 0.234200001 0.2228000015
0.575000003 0.265799999 0.2771999835
0.765799999 0.4728000165 0.324999988
0.734200001 0.0271999985 0.174999997
0.515799999 0.2771999835 0.174999997
0.984200001 0.2228000015 0.324999988
0.734200001 0.2228000015 0.425000012
0.765799999 0.2771999835 0.075000003
0.984200001 0.0271999985 0.075000003
0.515799999 0.4728000165 0.425000012
0.5500000005 0.0978000015 0.640799999
0.9499999880000001 0.4021999835 0.859200001
0.700000003 0.4021999835 0.890799999
0.8000000119999999 0.0978000015 0.609200001
0.9499999880000001 0.3478000165 0.609200001
0.5500000005 0.1521999985 0.890799999
0.8000000119999999 0.1521999985 0.859200001
0.700000003 0.3478000165 0.640799999
0.640799999 0.0500000005 0.5978000015
0.859200001 0.449999988 0.9021999835000001
0.890799999 0.200000003 0.9021999835000001
0.609200001 0.300000012 0.5978000015
0.609200001 0.449999988 0.8478000164999999
0.890799999 0.0500000005 0.6521999985
0.859200001 0.300000012 0.6521999985
0.640799999 0.200000003 0.8478000164999999
0.5978000015 0.140799999 0.5500000005
0.9021999835000001 0.359200001 0.9499999880000001
0.9021999835000001 0.390799999 0.700000003
0.5978000015 0.109200001 0.8000000119999999
0.8478000164999999 0.109200001 0.9499999880000001
0.6521999985 0.390799999 0.5500000005
0.6521999985 0.359200001 0.8000000119999999
0.8478000164999999 0.140799999 0.700000003
0.9728000164999999 0.174999997 0.984200001
0.5271999985 0.324999988 0.515799999
0.7771999835000001 0.324999988 0.734200001
0.7228000015 0.174999997 0.765799999
0.7228000015 0.075000003 0.515799999
0.7771999835000001 0.425000012 0.984200001
0.5271999985 0.425000012 0.765799999
0.9728000164999999 0.075000003 0.734200001
0.9250000119999999 0.265799999 0.5271999985
0.575000003 0.234200001 0.9728000164999999
0.575000003 0.015799999 0.7228000015
0.9250000119999999 0.484200001 0.7771999835000001
0.8249999880000001 0.234200001 0.7771999835000001
0.674999997 0.265799999 0.7228000015
0.674999997 0.484200001 0.9728000164999999
0.8249999880000001 0.015799999 0.5271999985
0.515799999 0.2228000015 0.575000003
0.984200001 0.2771999835 0.9250000119999999
0.765799999 0.0271999985 0.9250000119999999
0.734200001 0.4728000165 0.575000003
0.984200001 0.4728000165 0.674999997
0.515799999 0.0271999985 0.8249999880000001
0.734200001 0.2771999835 0.8249999880000001
0.765799999 0.2228000015 0.674999997
0.8000000119999999 0.3478000165 0.890799999
0.700000003 0.1521999985 0.609200001
0.9499999880000001 0.1521999985 0.640799999
0.5500000005 0.3478000165 0.859200001
0.700000003 0.0978000015 0.859200001
0.8000000119999999 0.4021999835 0.640799999
0.5500000005 0.4021999835 0.609200001
0.9499999880000001 0.0978000015 0.890799999
0.890799999 0.300000012 0.8478000164999999
0.609200001 0.200000003 0.6521999985
0.640799999 0.449999988 0.6521999985
0.859200001 0.0500000005 0.8478000164999999
0.859200001 0.200000003 0.5978000015
0.640799999 0.300000012 0.9021999835000001
0.609200001 0.0500000005 0.9021999835000001
0.890799999 0.449999988 0.5978000015
0.8478000164999999 0.390799999 0.8000000119999999
0.6521999985 0.109200001 0.700000003
0.6521999985 0.140799999 0.9499999880000001
0.8478000164999999 0.359200001 0.5500000005
0.5978000015 0.359200001 0.700000003
0.9021999835000001 0.140799999 0.8000000119999999
0.9021999835000001 0.109200001 0.5500000005
0.5978000015 0.390799999 0.9499999880000001
0.7228000015 0.425000012 0.734200001
0.7771999835000001 0.075000003 0.765799999
0.5271999985 0.075000003 0.984200001
0.9728000164999999 0.425000012 0.515799999
0.9728000164999999 0.324999988 0.765799999
0.5271999985 0.174999997 0.734200001
0.7771999835000001 0.174999997 0.515799999
0.7228000015 0.324999988 0.984200001
0.674999997 0.015799999 0.7771999835000001
0.8249999880000001 0.484200001 0.7228000015
0.8249999880000001 0.265799999 0.9728000164999999
0.674999997 0.234200001 0.5271999985
0.575000003 0.484200001 0.5271999985
0.9250000119999999 0.015799999 0.9728000164999999
0.9250000119999999 0.234200001 0.7228000015
0.575000003 0.265799999 0.7771999835000001
0.765799999 0.4728000165 0.8249999880000001
0.734200001 0.0271999985 0.674999997
0.515799999 0.2771999835 0.674999997
0.984200001 0.2228000015 0.8249999880000001
0.734200001 0.2228000015 0.9250000119999999
0.765799999 0.2771999835 0.575000003
0.984200001 0.0271999985 0.575000003
0.515799999 0.4728000165 0.9250000119999999
0.5500000005 0.5978000015 0.140799999
0.9499999880000001 0.9021999835000001 0.359200001
0.700000003 0.9021999835000001 0.390799999
0.8000000119999999 0.5978000015 0.109200001
0.9499999880000001 0.8478000164999999 0.109200001
0.5500000005 0.6521999985 0.390799999
0.8000000119999999 0.6521999985 0.359200001
0.700000003 0.8478000164999999 0.140799999
0.640799999 0.5500000005 0.0978000015
0.859200001 0.9499999880000001 0.4021999835
0.890799999 0.700000003 0.4021999835
0.609200001 0.8000000119999999 0.0978000015
0.609200001 0.9499999880000001 0.3478000165
0.890799999 0.5500000005 0.1521999985
0.859200001 0.8000000119999999 0.1521999985
0.640799999 0.700000003 0.3478000165
0.5978000015 0.640799999 0.0500000005
0.9021999835000001 0.859200001 0.449999988
0.9021999835000001 0.890799999 0.200000003
0.5978000015 0.609200001 0.300000012
0.8478000164999999 0.609200001 0.449999988
0.6521999985 0.890799999 0.0500000005
0.6521999985 0.859200001 0.300000012
0.8478000164999999 0.640799999 0.200000003
0.9728000164999999 0.674999997 0.484200001
0.5271999985 0.8249999880000001 0.015799999
0.7771999835000001 0.8249999880000001 0.234200001
0.7228000015 0.674999997 0.265799999
0.7228000015 0.575000003 0.015799999
0.7771999835000001 0.9250000119999999 0.484200001
0.5271999985 0.9250000119999999 0.265799999
0.9728000164999999 0.575000003 0.234200001
0.9250000119999999 0.765799999 0.0271999985
0.575000003 0.734200001 0.4728000165
0.575000003 0.515799999 0.2228000015
0.9250000119999999 0.984200001 0.2771999835
0.8249999880000001 0.734200001 0.2771999835
0.674999997 0.765799999 0.2228000015
0.674999997 0.984200001 0.4728000165
0.8249999880000001 0.515799999 0.0271999985
0.515799999 0.7228000015 0.075000003
0.984200001 0.7771999835000001 0.425000012
0.765799999 0.5271999985 0.425000012
0.734200001 0.9728000164999999 0.075000003
0.984200001 0.9728000164999999 0.174999997
0.515799999 0.5271999985 0.324999988
0.734200001 0.7771999835000001 0.324999988
0.765799999 0.7228000015 0.174999997
0.8000000119999999 0.8478000164999999 0.390799999
0.700000003 0.6521999985 0.109200001
0.9499999880000001 0.6521999985 0.140799999
0.5500000005 0.8478000164999999 0.359200001
0.700000003 0.5978000015 0.359200001
0.8000000119999999 0.9021999835000001 0.140799999
0.5500000005 0.9021999835000001 0.109200001
0.9499999880000001 0.5978000015 0.390799999
0.890799999 0.8000000119999999 0.3478000165
0.609200001 0.700000003 0.1521999985
0.640799999 0.9499999880000001 0.1521999985
0.859200001 0.5500000005 0.3478000165
0.859200001 0.700000003 0.0978000015
0.640799999 0.8000000119999999 0.4021999835
0.609200001 0.5500000005 0.4021999835
0.890799999 0.9499999880000001 0.0978000015
0.8478000164999999 0.890799999 0.300000012
0.6521999985 0.609200001 0.200000003
0.6521999985 0.640799999 0.449999988
0.8478000164999999 0.859200001 0.0500000005
0.5978000015 0.859200001 0.200000003
0.9021999835000001 0.640799999 0.300000012
0.9021999835000001 0.609200001 0.0500000005
0.5978000015 0.890799999 0.449999988
0.7228000015 0.9250000119999999 0.234200001
0.7771999835000001 0.575000003 0.265799999
0.5271999985 0.575000003 0.484200001
0.9728000164999999 0.9250000119999999 0.015799999
0.9728000164999999 0.8249999880000001 0.265799999
0.5271999985 0.674999997 0.234200001
0.7771999835000001 0.674999997 0.015799999
0.7228000015 0.8249999880000001 0.484200001
0.674999997 0.515799999 0.2771999835
0.8249999880000001 0.984200001 0.2228000015
0.8249999880000001 0.765799999 0.4728000165
0.674999997 0.734200001 0.0271999985
0.575000003 0.984200001 0.0271999985
0.9250000119999999 0.515799999 0.4728000165
0.9250000119999999 0.734200001 0.2228000015
0.575000003 0.765799999 0.2771999835
0.765799999 0.9728000164999999 0.324999988
0.734200001 0.5271999985 0.174999997
0.515799999 0.7771999835000001 0.174999997
0.984200001 0.7228000015 0.324999988
0.734200001 0.7228000015 0.425000012
0.765799999 0.7771999835000001 0.075000003
0.984200001 0.5271999985 0.075000003
0.515799999 0.9728000164999999 0.425000012
0.5500000005 0.5978000015 0.640799999
0.9499999880000001 0.9021999835000001 0.859200001
0.700000003 0.9021999835000001 0.890799999
0.8000000119999999 0.5978000015 0.609200001
0.9499999880000001 0.8478000164999999 0.609200001
0.5500000005 0.6521999985 0.890799999
0.8000000119999999 0.6521999985 0.859200001
0.700000003 0.8478000164999999 0.640799999
0.640799999 0.5500000005 0.5978000015
0.859200001 0.9499999880000001 0.9021999835000001
0.890799999 0.700000003 0.9021999835000001
0.609200001 0.8000000119999999 0.5978000015
0.609200001 0.9499999880000001 0.8478000164999999
0.890799999 0.5500000005 0.6521999985
0.859200001 0.8000000119999999 0.6521999985
0.640799999 0.700000003 0.8478000164999999
0.5978000015 0.640799999 0.5500000005
0.9021999835000001 0.859200001 0.9499999880000001
0.9021999835000001 0.890799999 0.700000003
0.5978000015 0.609200001 0.8000000119999999
0.8478000164999999 0.609200001 0.9499999880000001
0.6521999985 0.890799999 0.5500000005
0.6521999985 0.859200001 0.8000000119999999
0.8478000164999999 0.640799999 0.700000003
0.9728000164999999 0.674999997 0.984200001
0.5271999985 0.8249999880000001 0.515799999
0.7771999835000001 0.8249999880000001 0.734200001
0.7228000015 0.674999997 0.765799999
0.7228000015 0.575000003 0.515799999
0.7771999835000001 0.9250000119999999 0.984200001
0.5271999985 0.9250000119999999 0.765799999
0.9728000164999999 0.575000003 0.734200001
0.9250000119999999 0.765799999 0.5271999985
0.575000003 0.734200001 0.9728000164999999
0.575000003 0.515799999 0.7228000015
0.9250000119999999 0.984200001 0.7771999835000001
0.8249999880000001 0.734200001 0.7771999835000001
0.674999997 0.765799999 0.7228000015
0.674999997 0.984200001 0.9728000164999999
0.8249999880000001 0.515799999 0.5271999985
0.515799999 0.7228000015 0.575000003
0.984200001 0.7771999835000001 0.9250000119999999
0.765799999 0.5271999985 0.9250000119999999
0.734200001 0.9728000164999999 0.575000003
0.984200001 0.9728000164999999 0.674999997
0.515799999 0.5271999985 0.8249999880000001
0.734200001 0.7771999835000001 0.8249999880000001
0.765799999 0.7228000015 0.674999997
0.8000000119999999 0.8478000164999999 0.890799999
0.700000003 0.6521999985 0.609200001
0.9499999880000001 0.6521999985 0.640799999
0.5500000005 0.8478000164999999 0.859200001
0.700000003 0.5978000015 0.859200001
0.8000000119999999 0.9021999835000001 0.640799999
0.5500000005 0.9021999835000001 0.609200001
0.9499999880000001 0.5978000015 0.890799999
0.890799999 0.8000000119999999 0.8478000164999999
0.609200001 0.700000003 0.6521999985
0.640799999 0.9499999880000001 0.6521999985
0.859200001 0.5500000005 0.8478000164999999
0.859200001 0.700000003 0.5978000015
0.640799999 0.8000000119999999 0.9021999835000001
0.609200001 0.5500000005 0.9021999835000001
0.890799999 0.9499999880000001 0.5978000015
0.8478000164999999 0.890799999 0.8000000119999999
0.6521999985 0.609200001 0.700000003
0.6521999985 0.640799999 0.9499999880000001
0.8478000164999999 0.859200001 0.5500000005
0.5978000015 0.859200001 0.700000003