LLZO_Ia3d_Al00_partial_23               
   1.00000000000000     
    12.9652004242000007    0.0000000000000000    0.0000000000000000
     0.0000000000000000   12.9650001526000000    0.0000000000000000
     0.0000000000000000    0.0000000000000000   12.9650001526000000
   O    La   Zr   Li   Al
    96    24    16    56     0
Direct
  0.1056772749810980  0.2020980528921360  0.2515104299319819
  0.9091525436571494  0.8151102722968688  0.7198111925368190
  0.4095030951936216  0.7864148887208094  0.7889307766007874
  0.5962675331001259  0.2115273878454630  0.2285107763164715
  0.9087316137324608  0.6998283971346432  0.1918536356088851
  0.0956312603469938  0.2771387684306948  0.7733094551381380
  0.6019546538438150  0.3036258556117034  0.7197987749124357
  0.4086953752785091  0.6865545475535024  0.2805822197726630
  0.2903755370611357  0.1024524080839368  0.2049551209036716
  0.7327239229381080  0.8973572170711321  0.7989661346711298
  0.7938439011708822  0.3950446631745536  0.7689647934128856
  0.2094798827636323  0.6090840271048865  0.2017319421669061
  0.2409302839332598  0.8895565572913118  0.6983606808166214
  0.7795271047573189  0.0870629079044774  0.2977141620298839
  0.7177953169090920  0.6072791845590290  0.2739926952830143
  0.2841561185741650  0.3858814218299070  0.6797249343252467
  0.2057657963734426  0.2844307413256111  0.0963790760540864
  0.7714919024950424  0.7099338877737845  0.8741642135189279
  0.8093217799478980  0.7659246885105542  0.3923447139532678
  0.1867599986784362  0.2094626964519086  0.5771666151375914
  0.7451747744743032  0.2109263263236053  0.8858225337177578
  0.3124810065643851  0.7562378442660889  0.1077771124636072
  0.2832147242745009  0.7279902482775856  0.5924031698014990
  0.6893142333835477  0.2830463863378392  0.4099845690322323
  0.9624676345819293  0.3585453901109362  0.9585107267640145
  0.0613725226659353  0.6661093024524096  0.0145314451709784
  0.5613932779960334  0.6343508777217087  0.4666402206571117
  0.4489485976343991  0.3473875467433130  0.5362941577427470
  0.4398685498234510  0.1508080064222610  0.0148801338362568
  0.5562941219855237  0.8687571541144803  0.9717620750836111
  0.0568570004382500  0.8467609114056400  0.5126040139992396
  0.9335624453276921  0.1408343887291551  0.4644462897418603
  0.8612286277540188  0.5576885695224022  0.0640512355594468
  0.1530601259817440  0.4768639283686331  0.9686851965973021
  0.1721577636010460  0.0282920360191461  0.4358888881582876
  0.8626099267847801  0.9481469731640957  0.5191372872173260
  0.6468617312081102  0.4757376360832685  0.5648208449145933
  0.3503696084324139  0.5267585244999989  0.4250434773553681
  0.3540661329892711  0.9604618713780774  0.9251352769861478
  0.6512467008415588  0.0484918189100012  0.0496158332655979
  0.0118457372173225  0.4379516792995951  0.1577072835714133
  0.9708098548459512  0.5441149263882072  0.8643808153036746
  0.5345582761211835  0.0657567516780121  0.8382896829546839
  0.4529046321993600  0.9376629350316288  0.1382817660783104
  0.9835518399331727  0.9494972507111253  0.3435828189365554
  0.0513176568596401  0.0416869548642300  0.6302502581980147
  0.4492424891349558  0.5590854686191541  0.6336493203688293
  0.5443365430605117  0.4516462360227924  0.3398718869425883
  0.6092504113099914  0.7109569003464129  0.7459545936476536
  0.4021770069491098  0.3059500181474783  0.2022384376408710
  0.8913381714092669  0.2672107296214473  0.3005018270356681
  0.0992947061358381  0.7286228834185635  0.7345276497014880
  0.3981393379373865  0.2005754231001450  0.7238734014146393
  0.6043818360550002  0.8192459725179089  0.2807139135548840
  0.1061719213110968  0.7997112923210363  0.1878210458252124
  0.9211847289294260  0.1929398300857162  0.7571792070097754
  0.7858524698400594  0.5888883794502436  0.6779088709248826
  0.2032606158551075  0.3856622146419098  0.2977796424222486
  0.2785747647276204  0.8752952003331151  0.3288378848492916
  0.7405680642157919  0.0857723963901778  0.6697849882596846
  0.7400168503057548  0.3882503494036057  0.1765081416631420
  0.2693634498306063  0.5728642686060310  0.8001289131845967
  0.2214267742625834  0.0821160229319683  0.7987179467913624
  0.8090530508118459  0.9064430726862479  0.1752341296222677
  0.7075708359456433  0.7859863899441567  0.5808153911756628
  0.3316232400900120  0.2328762814695872  0.4094816733602407
  0.2825276472241556  0.2789350844375075  0.9054197933634324
  0.7270437861920626  0.7218058875651776  0.0982749205594332
  0.1606238208877347  0.7088078813427859  0.3978102164461219
  0.8026796540920850  0.2783061397547125  0.5647069548920495
  0.8138126236679852  0.2116825129302039  0.0803504865923194
  0.2003759937474526  0.7670415279713032  0.9089468783326111
  0.4401950278542013  0.8536742621764470  0.4640750298224119
  0.5324197644631760  0.1438335593990757  0.5327777259888957
  0.0336007895455598  0.1650805544189202  0.9467523524913455
  0.9228683880792187  0.8597311297885835 -0.0074234956580076
  0.9235611144585165  0.6588191790691504  0.5423808159171790
  0.0137447269634701  0.3671729566228444  0.4366487882213960
  0.5583249476897832  0.3429112469435477  0.0177105546626866
  0.5218362562044951  0.6485218343780754  0.9629868665127987
  0.3383027283586243  0.0494175473377971  0.5579610705094652
  0.6443016142711411  0.9716073916699484  0.4583131025570668
  0.6693128225185436  0.5025154101772678  0.9117375911139498
  0.3598583090930573  0.4494861107949136  0.0299119931570896
  0.1581596058488324  0.9604237793637960  0.0252985351062256
  0.8606870770512738  0.0263807452048758  0.9267077150278609
  0.8467733015405507  0.4911520168866347  0.4286260491834491
  0.1351718441739914  0.5283469974996849  0.5520843147029545
  0.5354731960472073  0.9334513112431866  0.6628954437744319
  0.4742332758206330  0.0462957896158297  0.3376395950366676
  0.0273297685108699  0.5495357043709460  0.3348670273467504
  0.9742774209179462  0.4509553062287740  0.6533596932453102
  0.4785058344975840  0.4370053479347460  0.8270880735086852
  0.5515057015499190  0.5344729337768755  0.1320158454506815
  0.9919114329512246  0.0653258974641269  0.1384877410907197
  0.0536019275135897  0.9858500014950714  0.8419506768941510
  0.1265817921002140  0.0060604979252739  0.2515961647524614
  0.8875916993029295  0.9950270127841282  0.7564857335724603
  0.3904863988774245  1.0056961233908934  0.7641388678742026
  0.6148328437933791  0.9970574280377626  0.2472106096589747
  0.8778912049132142  0.5181874518024645  0.2431032882329017
  0.1109596292180312  0.5111499485212458  0.7669813035827190
  0.6425806141152863  0.5030001672129244  0.7406184131728377
  0.3771490172682432  0.5037988594167645  0.2586609153997164
  0.2385925048271749  0.1426448111664776 -0.0129129559918424
  0.7510596678771017  0.8785500597750212  0.9939848406809034
  0.7672308611389370  0.3638067369392585  0.0042921689516993
  0.2660084147648710  0.6152180064130994  1.0193558465793284
  0.2344892293874148  0.8736404521508245  0.4930650259329504
  0.7472258655348932  0.1272735477335518  0.4964088968143883
  0.7308671548284560  0.6339537103421357  0.4877394897746806
  0.2307870537510491  0.3610086162850837  0.4891723312292582
 -0.0126659645153135  0.2553837815651080  0.1129691438826786
  1.0125186885345698  0.7536552758384609  0.8783982420506602
 -0.0131310142088646  0.7593213116179144  0.3805564392591879
 -0.0103488761349497  0.2567949368919157  0.6006434048090663
  0.4984958758397205  0.2570280788426126  0.8614343605222156
  0.4930019599055620  0.7462837905794021  0.1207864805616303
  0.5094443009170930  0.7438349141290503  0.6188528512956242
  0.5059124204270224  0.2352990989320266  0.3815958844466440
  1.0048835933954239  0.0169102390932110 -0.0193717511907583
  0.4936011105859570  0.9987208465658614  0.5019816963036283
 -0.0081816277588725  0.5073382280224992  0.4933496348453890
  0.5282284459541011  0.4887598171209165  0.9894203145155648
  0.7533316872018232  0.2334129119474393  0.2375708219810409
  0.2677495127072406  0.7505993883621161  0.7637491864652903
  0.7616922888774393  0.7510328390279862  0.7349829588725976
  0.2532662006635329  0.2525863200822439  0.2473713416112786
  0.2417349838963661  0.2374385588783563  0.7316809157758841
  0.7551608065600811  0.7490880433529087  0.2443061430201502
  0.2460050413301675  0.7436859051792201  0.2544762577505150
  0.7468052337663607  0.2451722410854485  0.7264517064163217
  0.4851418790199365  0.4839630325619672  0.4870586353612289
  1.0028792466428584  0.5056766510793719  1.0159207276029314
  0.5041677075239920  1.0125433774361274  0.9988747517964415
  0.9929027458465575 -0.0075634519685628  0.5013560949060851
  0.1302580268927224  0.3339465741848595  0.9175544994917276
  0.2228631690198700 -0.0434253882223872  0.8712151586026707
  0.3600599414139845  0.9971299054356270  0.2653462256996181
  0.0555976313573772  0.6788983385389928  0.1589602144784374
  0.5133244343680283  0.6644913243136896  0.8263195800484416
  0.3124208188047662  0.8946323652460832  0.0590495318548866
  0.4321813275776071  1.1507408450776579  0.1803230334400063
  0.1665067731572172  0.4222064029950199  0.1578750194724025
  0.8387167987154784  0.9422192003916252  0.3374603637569227
  0.1967109398012043  0.0750631391995745  0.5655321264791419
  0.0375368427944383 -0.1724991198776394  0.6668480388067523
  0.8786520891577603  0.5053739267142854  0.7729601156265079
  0.8001449451687065  0.4320465929090390  0.5759350113046040
  0.6905502666725402  0.5943529627953081  1.1242488795302994
  0.4208324535814515  0.6926145397079592  0.4119725880849447
  0.6047883351718014  0.1956848718733754  0.0537100322052385
  1.0453125877970855  0.3874876002495088  0.2949525456221066
  0.9205079419983880  0.8132167298825909  0.5530092483138578
  0.3854096776144282  0.1736895557827979  0.5761232771467837
  0.5439988803975883  0.3413882783778463  0.1694344792321480
  0.2950324017415774  0.5411783730611885  0.6597633460513408
  0.5780817972242246  0.8149733700405285  0.4044048512360113
  0.4324106629808984  0.4167707052671436  0.6755082148874827
  0.1243531114997813  0.6676815188038405  0.5622235473146507
  0.6460002153809726  0.7350904497386693  0.9115601136545475
  0.8855384047596859  0.1684350687619398  0.9129523305519123
  0.4341419864052956  0.8352096866712633  0.9200346585383825
  0.1193733591470530  0.8228194168153882  0.0420477917364511
  0.9484952029002942  0.8229050895919418  1.1448410314334398
  0.5832699503016080  0.5530706397859118  0.2716611745900753
  0.9585418007239420  0.3394981932054498  0.8075462508504779
  1.1372196982183702 -0.0105494628054359  0.7435801780001124
  0.7410722738775191 -0.1263149400192767  0.4784885928022830
  0.4370857702896607  0.8423899522497197  0.3119517202055559
  0.1630031708000840  0.5328705146637428  0.3107876637687881
  0.6739776265852334  0.4123565228074299  0.3612992916305397
 -0.2252417880205286  0.5850338361475219  0.9459854283364587
  0.6453097601879528  0.3219625640740449  0.5408508808968698
  0.4031887026409187  0.3112919031347701  0.0633394625434153
  0.2649597502764760  0.6095537492771391  0.4999979186155313
  0.2477669392114211  0.3805465895391733  0.9998896261427729
  0.3260541847256143  0.4224580301151760  0.8490098386890162
 -0.0758930779869742  0.1144899277073032  0.3206919562347136
  0.8428891923188541  1.0500443691663990  0.1474084783094017
  0.0179004319179110  0.2334665972169310  0.3612022185273302
  0.2659804327018453  0.1004338773613218  0.4257095827655078
  0.5825596051781929  0.1122467056251742  0.6673778422475063
  0.5880942886277271  0.8864687182852176  0.8223931954981891
  0.8623382959080638  0.3570403578911620  0.4508325387046016
  0.6955034940959500  0.0637024811608062  0.8349822088823722
 -0.0667088095610513 -0.3514103902137303  0.6848300538722172
  0.7603147471341855  0.1120636492824648  0.0022906622055150
  0.8627361601256024  0.7006662741803150  1.0527196316194463
  0.4969547106257475  0.2625431741477107  0.6351570862086973
  0.0561985591575123  0.1362465716211627  0.7965690302628522
  0.6641998572330269  0.9030199160206075  0.6482981140138617
 
 -0.42351547E-02  0.14224517E-01  0.15799555E-02
 -0.14015603E-04  0.63632721E-02  0.93683456E-02
  0.12558518E-02  0.10490255E-02 -0.24228288E-01
 -0.15829803E-01 -0.77369368E-02  0.57077088E-03
  0.71333684E-02  0.39319896E-02  0.10543290E-01
 -0.96656982E-03  0.59676416E-02  0.12504400E-02
  0.18391822E-01  0.85710451E-02  0.78502762E-02
  0.63162698E-02  0.29755234E-02  0.60429844E-02
  0.11161514E-01  0.72713608E-02  0.96038563E-02
  0.84947325E-02  0.10067943E-01  0.73844498E-02
 -0.62161768E-02 -0.92118126E-02 -0.50060730E-03
 -0.66448675E-02  0.70642304E-02 -0.94167340E-02
  0.14150067E-02 -0.30636222E-02 -0.28262891E-02
 -0.14169977E-01 -0.32518923E-03 -0.34069442E-03
 -0.38203804E-02 -0.44068542E-02 -0.21323909E-01
 -0.27492672E-02  0.48087698E-02 -0.57714290E-02
  0.13400976E-01  0.75189975E-02 -0.77137750E-02
 -0.72426716E-02 -0.92991529E-02  0.40946232E-02
 -0.11570692E-01  0.12031007E-01 -0.23578605E-01
  0.12672329E-01  0.62813308E-02  0.21774266E-02
 -0.14358069E-01 -0.27682799E-02 -0.24907441E-02
 -0.32280345E-02 -0.12076095E-01  0.20262448E-01
 -0.47627179E-02  0.41698800E-03 -0.41129634E-02
 -0.19886062E-01  0.43837372E-02 -0.25895095E-02
  0.11100213E-01  0.74822297E-03  0.24360566E-02
  0.24770207E-02 -0.16748746E-01 -0.12591593E-01
 -0.16120568E-01  0.59401499E-02  0.39090402E-03
  0.16326414E-01 -0.98116493E-02  0.50672173E-02
 -0.12077458E-01 -0.14359255E-01  0.24283124E-03
 -0.62514443E-02  0.65705092E-02  0.29671711E-02
  0.44023634E-02 -0.18553983E-02 -0.11326564E-01
 -0.41503338E-02 -0.83396490E-02 -0.10534612E-02
  0.13477498E-02  0.66853155E-02 -0.60548961E-02
 -0.22064400E-02 -0.23730645E-02 -0.55552768E-02
 -0.26164723E-01  0.85654340E-02  0.67417314E-02
 -0.40717850E-02 -0.20042160E-02  0.30566119E-02
 -0.20379387E-01 -0.80717551E-02  0.46206443E-03
  0.95827721E-02 -0.88127992E-02 -0.51921013E-02
 -0.74815605E-02 -0.12338248E-01  0.85658612E-03
 -0.10023272E-01 -0.46316632E-02 -0.80157348E-02
 -0.49057887E-02  0.22177827E-02  0.92359467E-02
 -0.35395007E-02  0.35480354E-02  0.14914229E-01
 -0.13103629E-01  0.23075856E-02 -0.71333548E-02
  0.12001227E-01 -0.34748633E-02 -0.25702734E-02
  0.11831377E-01  0.12952157E-01 -0.20875829E-02
 -0.26370743E-02  0.49311700E-02 -0.11256139E-01
  0.12046475E-01  0.68647797E-02  0.62017400E-02
  0.19034577E-01  0.83395372E-02  0.98169618E-02
 -0.93416559E-02 -0.25547550E-02  0.21197116E-02
 -0.23555133E-02  0.93220678E-02 -0.18747135E-02
  0.11663628E-02  0.70661338E-02  0.39652750E-02
  0.10747675E-01  0.69820759E-02 -0.68639561E-02
  0.56115506E-03 -0.44808469E-03 -0.56834812E-02
  0.21570613E-02  0.82260449E-02 -0.23303068E-01
  0.40150434E-02 -0.41253620E-02  0.70672799E-02
 -0.10294045E-01  0.39763581E-02 -0.31077381E-02
  0.36581879E-02 -0.13495764E-01  0.99491924E-02
  0.77447550E-02 -0.97582815E-02  0.63619302E-03
  0.26321835E-02  0.57400169E-02 -0.15827364E-01
  0.96019537E-02  0.46051268E-02  0.28410007E-03
 -0.63483698E-03 -0.14888963E-01 -0.26597528E-02
  0.10143040E-02 -0.61688527E-02  0.11295597E-01
  0.25021539E-02  0.31116599E-03  0.11893464E-01
 -0.55171918E-02 -0.26504832E-02  0.19728719E-01
  0.35338373E-02  0.19860163E-02 -0.30248805E-02
 -0.87462220E-02 -0.50601743E-02 -0.10429596E-01
  0.55235435E-02  0.13277686E-01 -0.36410154E-03
  0.58458006E-02 -0.55865912E-02  0.33180813E-02
 -0.11982275E-01 -0.17181473E-02 -0.55923624E-02
 -0.41867073E-03 -0.28772573E-02 -0.12533452E-01
  0.53680951E-02 -0.26792587E-04 -0.64546267E-02
  0.46297437E-02 -0.10854657E-01 -0.74746661E-02
  0.31228264E-02 -0.13373729E-02 -0.88910075E-02
  0.69845627E-02 -0.62474744E-02  0.58200779E-02
 -0.62154248E-02  0.26068476E-02 -0.10643774E-01
  0.67095306E-02 -0.14031965E-01  0.39556644E-02
  0.45492777E-02 -0.16725419E-01 -0.10170858E-01
 -0.87897217E-02  0.71899091E-02  0.79582357E-02
 -0.77264639E-02  0.11248572E-01 -0.11909249E-01
  0.64937813E-02 -0.11427252E-01  0.25482626E-02
 -0.11730101E-02  0.14682958E-01  0.82845715E-02
  0.24305218E-01 -0.60426667E-03 -0.41225728E-02
 -0.14155290E-01  0.52684989E-02 -0.95765022E-02
 -0.38537154E-02  0.54762508E-02 -0.14995266E-02
 -0.83340726E-02  0.41516657E-02 -0.76270960E-02
  0.75921745E-02  0.14079567E-01  0.35288121E-02
  0.11252785E-01 -0.88690322E-03  0.15522098E-01
 -0.42708657E-02  0.52401367E-03 -0.64693497E-03
  0.53945936E-02  0.91771527E-02 -0.11962100E-01
 -0.13574916E-01 -0.91362619E-02  0.19748195E-01
  0.75259464E-02 -0.49262930E-02  0.33074678E-02
 -0.11053739E-02  0.80854755E-02  0.33296182E-02
  0.25993528E-02  0.78794901E-02 -0.15095771E-02
  0.14037040E-01  0.30231122E-02 -0.11738553E-01
 -0.10884305E-01 -0.83568203E-02  0.95619777E-02
  0.12217103E-03 -0.95495595E-02  0.44885381E-02
  0.14600818E-02  0.23764012E-02 -0.75356603E-03
 -0.19460613E-02 -0.32904672E-02  0.38042526E-02
  0.35195459E-02 -0.26466505E-02 -0.97355482E-03
  0.17227258E-02  0.11966969E-02  0.58909183E-02
 -0.41129411E-02 -0.60004372E-03  0.21276678E-02
  0.11039552E-02  0.58013836E-04 -0.29285496E-02
 -0.63182218E-02  0.31762528E-02  0.38544196E-02
 -0.22136475E-02  0.33352581E-02  0.37301884E-02
  0.28547499E-02  0.25171485E-02  0.30927962E-02
  0.39185027E-02  0.51270565E-02 -0.28202098E-03
  0.33422288E-02  0.19358938E-02  0.12272227E-02
  0.19768794E-02 -0.47460637E-02 -0.81744133E-03
 -0.34069620E-02  0.39858686E-02  0.36324244E-02
  0.12806799E-02 -0.12927203E-02  0.12300194E-02
  0.10417203E-02 -0.32936360E-02  0.36511419E-02
  0.41425418E-02  0.28216372E-02 -0.75259309E-02
 -0.10867963E-03  0.23932561E-02 -0.56931730E-03
  0.24541496E-03  0.28438140E-02  0.36562255E-03
 -0.13208158E-02 -0.38929514E-02 -0.24728615E-02
 -0.16706486E-02 -0.19455580E-03 -0.66309435E-03
  0.30065835E-02 -0.24992460E-02 -0.39023703E-03
  0.42589068E-02  0.26070637E-04 -0.28824216E-02
 -0.22509767E-02 -0.52746892E-02 -0.15571121E-02
 -0.19945126E-03 -0.67165890E-02  0.29750054E-03
  0.56468658E-03 -0.38483019E-02 -0.35416997E-03
 -0.64942749E-03 -0.17386458E-02  0.10415576E-02
 -0.45441041E-02 -0.32969371E-02 -0.36223367E-02
 -0.41494478E-04 -0.12194143E-02  0.13900343E-02
  0.23677970E-02  0.16474098E-02  0.91717805E-03
  0.38603049E-02 -0.40650491E-03 -0.56870079E-02
 -0.19377909E-03 -0.15562550E-02  0.74434058E-03
 -0.19873794E-02  0.30274308E-03  0.49674149E-02
 -0.50443237E-02  0.31270794E-02 -0.44928172E-03
 -0.80885504E-02  0.51476905E-02 -0.49290979E-02
 -0.10637339E-02 -0.42132002E-02 -0.99585545E-03
  0.31724236E-02  0.13328194E-02  0.21399842E-02
  0.54369370E-02  0.96909236E-03  0.76537964E-03
 -0.10473836E-02  0.14198990E-02 -0.59091178E-02
  0.40970484E-02  0.22897367E-02  0.31558964E-02
 -0.33000052E-02 -0.16111992E-02  0.13904876E-02
 -0.19651587E-02  0.74228837E-02 -0.22838755E-01
  0.80960806E-02 -0.66488306E-02 -0.28956077E-02
  0.31534746E-01 -0.54512236E-02  0.79497232E-02
  0.10511086E-01  0.30322880E-01  0.17405019E-01
 -0.24276686E-01 -0.12474306E-01 -0.23837897E-01
 -0.25368006E-01  0.20224369E-01 -0.79389120E-02
  0.22110305E-01  0.59601907E-02 -0.20029956E-02
 -0.95421335E-02 -0.28842477E-01 -0.11884025E-01
 -0.97739207E-02 -0.99168322E-02  0.73348717E-02
 -0.11896763E-02 -0.68261667E-02 -0.12759811E-01
  0.34827470E-02  0.85665166E-02 -0.92075736E-03
 -0.17387883E-02 -0.78311272E-02  0.15492253E-01
 -0.55350635E-02 -0.78122526E-02 -0.68007234E-02
 -0.14460968E-02  0.13273390E-02 -0.18141142E-02
  0.20864398E-01  0.34971380E-01  0.50389062E-02
 -0.10955278E-01 -0.20339144E-01 -0.37300981E-02
 -0.26921005E-03  0.19470977E-01 -0.28386897E-03
 -0.96284142E-02  0.63687457E-02  0.22452942E-01
 -0.52087063E-02 -0.77154521E-02  0.70057993E-02
  0.13880689E-01 -0.12645307E-02  0.62179334E-02
 -0.28586994E-02 -0.12643566E-01 -0.56761548E-02
  0.21646946E-02 -0.20595647E-01  0.12499203E-01
  0.77632355E-02  0.19411472E-01  0.23233850E-02
  0.97671604E-03  0.39911075E-02  0.31942360E-01
 -0.18031244E-01 -0.73492394E-02  0.13676633E-03
 -0.22376001E-02  0.33976727E-01 -0.25277209E-01
  0.15619119E-01 -0.23366289E-01 -0.51634746E-02
  0.22785389E-01  0.87603948E-02  0.45540562E-02
  0.62077887E-02  0.56919053E-02  0.13755178E-01
 -0.91463342E-02 -0.62707786E-02 -0.41800214E-02
 -0.17098385E-01  0.12260573E-01  0.18400328E-01
  0.17076883E-02  0.10812479E-02  0.89903714E-03
 -0.48587283E-02  0.44055604E-02  0.17374180E-01
 -0.30753849E-01 -0.13675301E-01 -0.19156176E-02
 -0.16483504E-01 -0.22139513E-01  0.40156956E-02
  0.32655912E-01 -0.56444317E-02 -0.12555780E-01
 -0.29289358E-01 -0.98233667E-02 -0.11121719E-01
 -0.13700399E-01  0.12451661E-01  0.26105455E-01
 -0.27052313E-02  0.23392247E-02  0.18022339E-02
 -0.13357113E-01  0.39280018E-02 -0.99207116E-04
  0.14912402E-01  0.14935333E-01 -0.74812576E-02
 -0.64720731E-02  0.25580795E-01  0.11620711E-01
 -0.67219883E-02 -0.57693989E-02 -0.35153722E-02
 -0.11186457E-01  0.50103010E-02  0.20529431E-01
 -0.45254485E-02 -0.24664959E-02  0.33008289E-02
  0.14732518E-01 -0.21273600E-02 -0.16583393E-02
  0.13189226E-01  0.80868730E-02 -0.51402317E-02
  0.56890534E-02 -0.10413007E-01 -0.15985984E-01
 -0.58499658E-02 -0.73608054E-02 -0.86271597E-02
 -0.72492062E-02  0.86050482E-02 -0.20864266E-01
  0.84316698E-02 -0.11056393E-01  0.44652640E-02
  0.13925995E-01  0.17745212E-01  0.38331244E-02
 -0.81699156E-02 -0.18392388E-01  0.89310473E-02
 -0.19779102E-01 -0.25918499E-01 -0.13206668E-01
 -0.61258813E-02  0.14642645E-02  0.99273376E-02
  0.11980132E-01  0.18920464E-01 -0.30257624E-01
 
           1
   2.00000000000000     
 -0.48621691E+00  0.79002828E-04  0.77486384E-04 -0.48629515E+00
  0.10502396E+00  0.20429235E+00  0.25175416E+00
  0.90915038E+00  0.81609188E+00  0.72125637E+00
  0.40969682E+00  0.78657671E+00  0.78519329E+00
  0.59382564E+00  0.21033388E+00  0.22859882E+00
  0.90983200E+00  0.70043495E+00  0.19348006E+00
  0.95482158E-01  0.27805935E+00  0.77350235E+00
  0.60479176E+00  0.30494804E+00  0.72100977E+00
  0.40966972E+00  0.68701356E+00  0.28151442E+00
  0.29209730E+00  0.10357410E+00  0.20643663E+00
  0.73403431E+00  0.89891031E+00  0.80010527E+00
  0.79288500E+00  0.39362364E+00  0.76888757E+00
  0.20845485E+00  0.61017377E+00  0.20027930E+00
  0.24114856E+00  0.88908396E+00  0.69792469E+00
  0.77734126E+00  0.87012744E-01  0.29766161E+00
  0.71720599E+00  0.60659938E+00  0.27070324E+00
  0.28373202E+00  0.38662323E+00  0.67883463E+00
  0.20783302E+00  0.28559063E+00  0.95189138E-01
  0.77037465E+00  0.70849939E+00  0.87479586E+00
  0.80753690E+00  0.76778061E+00  0.38870744E+00
  0.18871482E+00  0.21043166E+00  0.57750251E+00
  0.74295991E+00  0.21049929E+00  0.88543831E+00
  0.31198305E+00  0.75437497E+00  0.11090283E+00
  0.28248003E+00  0.72805457E+00  0.59176870E+00
  0.68624663E+00  0.28372263E+00  0.40958511E+00
  0.96417994E+00  0.35866081E+00  0.95888652E+00
  0.61754626E-01  0.66352562E+00  0.12589048E-01
  0.55890653E+00  0.63526721E+00  0.46670052E+00
  0.45146710E+00  0.34587399E+00  0.53707583E+00
  0.43800549E+00  0.14859293E+00  0.14917593E-01
  0.55532978E+00  0.86977073E+00  0.97221980E+00
  0.57536105E-01  0.84647469E+00  0.51085676E+00
  0.93292222E+00  0.13954790E+00  0.46428378E+00
  0.86143653E+00  0.55871986E+00  0.63117198E-01
  0.15271976E+00  0.47649786E+00  0.96782823E+00
  0.16812162E+00  0.29613352E-01  0.43692888E+00
  0.86198182E+00  0.94783780E+00  0.51960880E+00
  0.64371803E+00  0.47449248E+00  0.56489212E+00
  0.35184784E+00  0.52539905E+00  0.42424254E+00
  0.35291203E+00  0.95855856E+00  0.92526742E+00
  0.64970052E+00  0.47777332E-01  0.48379314E-01
  0.11088975E-01  0.43829380E+00  0.15913203E+00
  0.97026385E+00  0.54466225E+00  0.86668151E+00
  0.53253692E+00  0.66112723E-01  0.83718928E+00
  0.45475593E+00  0.93712690E+00  0.13788527E+00
  0.98537694E+00  0.95149527E+00  0.34326079E+00
  0.50910864E-01  0.42447644E-01  0.62851387E+00
  0.45110077E+00  0.56014444E+00  0.63460601E+00
  0.54727280E+00  0.45293271E+00  0.34138627E+00
  0.60780938E+00  0.71056280E+00  0.74628158E+00
  0.40181365E+00  0.30738805E+00  0.20194924E+00
  0.89151809E+00  0.26830076E+00  0.30111352E+00
  0.10095263E+00  0.72969995E+00  0.73346881E+00
  0.39822590E+00  0.20050630E+00  0.72299666E+00
  0.60471458E+00  0.82051493E+00  0.27711915E+00
  0.10679128E+00  0.79907491E+00  0.18891125E+00
  0.91959678E+00  0.19355323E+00  0.75669980E+00
  0.78641678E+00  0.58680650E+00  0.67944365E+00
  0.20445531E+00  0.38415689E+00  0.29787778E+00
  0.27898080E+00  0.87618066E+00  0.32639633E+00
  0.74204925E+00  0.86482790E-01  0.66982881E+00
  0.73991892E+00  0.38595356E+00  0.17609784E+00
  0.26951992E+00  0.57191265E+00  0.80187139E+00
  0.22181275E+00  0.82164024E-01  0.80055265E+00
  0.80820197E+00  0.90603421E+00  0.17827751E+00
  0.70811596E+00  0.78629276E+00  0.58034877E+00
  0.33027406E+00  0.23209569E+00  0.40787279E+00
  0.28337970E+00  0.28098332E+00  0.90536363E+00
  0.72794555E+00  0.72094409E+00  0.98786773E-01
  0.15877545E+00  0.70854284E+00  0.39694753E+00
  0.80261507E+00  0.27786229E+00  0.56277353E+00
  0.81464070E+00  0.21167838E+00  0.79354786E-01
  0.20109017E+00  0.76536707E+00  0.90779383E+00
  0.44067675E+00  0.85346796E+00  0.46270349E+00
  0.53349720E+00  0.14286981E+00  0.53367554E+00
  0.32642004E-01  0.16548269E+00  0.94511043E+00
  0.92390339E+00  0.85756654E+00  0.99318671E+00
  0.92426288E+00  0.65623909E+00  0.54081184E+00
  0.12388833E-01  0.36828208E+00  0.43787644E+00
  0.55713307E+00  0.34464647E+00  0.15873416E-01
  0.52283798E+00  0.64675905E+00  0.96337997E+00
  0.33812178E+00  0.51682562E-01  0.55923906E+00
  0.64805092E+00  0.97151418E+00  0.45767715E+00
  0.66712924E+00  0.50332814E+00  0.91026031E+00
  0.35926384E+00  0.45033089E+00  0.29680674E-01
  0.15687400E+00  0.96106422E+00  0.24121968E-01
  0.86185824E+00  0.28552680E-01  0.92725207E+00
  0.84850915E+00  0.49101520E+00  0.43102051E+00
  0.13451302E+00  0.52842783E+00  0.55198452E+00
  0.53630536E+00  0.93486699E+00  0.66105015E+00
  0.47213922E+00  0.44886416E-01  0.34068598E+00
  0.28490714E-01  0.54877577E+00  0.33537724E+00
  0.97410691E+00  0.45220258E+00  0.65387333E+00
  0.47890681E+00  0.43822085E+00  0.82685520E+00
  0.55367104E+00  0.53493928E+00  0.13020504E+00
  0.99023243E+00  0.64036762E-01  0.13996279E+00
  0.53620774E-01  0.98437687E+00  0.84264309E+00
  0.12680702E+00  0.64270851E-02  0.25147992E+00
  0.88729150E+00  0.99451942E+00  0.75707258E+00
  0.39102932E+00  0.52878472E-02  0.76398869E+00
  0.61509859E+00  0.99724203E+00  0.24811935E+00
  0.87725675E+00  0.51809489E+00  0.24343151E+00
  0.11112992E+00  0.51115890E+00  0.76652954E+00
  0.64160597E+00  0.50349014E+00  0.74121300E+00
  0.37680754E+00  0.50431336E+00  0.25923634E+00
  0.23903288E+00  0.14303311E+00  0.98756414E+00
  0.75166413E+00  0.87934097E+00  0.99394134E+00
  0.76774643E+00  0.36410537E+00  0.44814821E-02
  0.26631337E+00  0.61448587E+00  0.19229747E-01
  0.23396367E+00  0.87425532E+00  0.49362537E+00
  0.74742342E+00  0.12707413E+00  0.49659864E+00
  0.73102785E+00  0.63344563E+00  0.48830272E+00
  0.23142608E+00  0.36144389E+00  0.48801137E+00
  0.98731727E+00  0.25575297E+00  0.11288132E+00
  0.12556546E-01  0.75409397E+00  0.87845464E+00
  0.98666524E+00  0.75872078E+00  0.38017497E+00
  0.98939341E+00  0.25676492E+00  0.60054111E+00
  0.49895967E+00  0.25664254E+00  0.86137416E+00
  0.49365893E+00  0.74628781E+00  0.12034183E+00
  0.50909707E+00  0.74302123E+00  0.61861265E+00
  0.50588165E+00  0.23426299E+00  0.38164178E+00
  0.49707014E-02  0.16316594E-01  0.98057361E+00
  0.49350093E+00  0.99845264E+00  0.50214237E+00
  0.99111740E+00  0.50682964E+00  0.49279085E+00
  0.52822205E+00  0.48857171E+00  0.98963474E+00
  0.75369694E+00  0.23366704E+00  0.23771231E+00
  0.26834500E+00  0.75053668E+00  0.76287190E+00
  0.76166240E+00  0.75079277E+00  0.73509778E+00
  0.25295963E+00  0.25263302E+00  0.24813762E+00
  0.24095685E+00  0.23792095E+00  0.73161161E+00
  0.75391307E+00  0.74988213E+00  0.24354577E+00
  0.24584095E+00  0.74303597E+00  0.25432264E+00
  0.74729461E+00  0.24537784E+00  0.72678182E+00
  0.48598058E+00  0.48411253E+00  0.48717670E+00
  0.27176782E-02  0.50589569E+00  0.15009178E-01
  0.50479971E+00  0.12896596E-01  0.99936159E+00
  0.99239369E+00  0.99218800E+00  0.50157059E+00
  0.12995488E+00  0.33509164E+00  0.91403136E+00
  0.22411206E+00  0.95554895E+00  0.87076848E+00
  0.36492446E+00  0.99628899E+00  0.26657256E+00
  0.57219062E-01  0.68357599E+00  0.16164514E+00
  0.50957953E+00  0.66256702E+00  0.82264231E+00
  0.30850757E+00  0.89775221E+00  0.57824864E-01
  0.43559204E+00  0.15166027E+00  0.18001405E+00
  0.16503481E+00  0.41775712E+00  0.15604177E+00
  0.83720908E+00  0.94068942E+00  0.33859185E+00
  0.19652742E+00  0.74010125E-01  0.56356378E+00
  0.38074088E-01  0.82882236E+00  0.66670600E+00
  0.87838387E+00  0.50416589E+00  0.77534997E+00
  0.79929111E+00  0.43084146E+00  0.57488592E+00
  0.69032719E+00  0.59455772E+00  0.12396903E+00
  0.42405098E+00  0.69800928E+00  0.41274990E+00
  0.60309838E+00  0.19254733E+00  0.53134622E-01
  0.45271060E-01  0.39049122E+00  0.29490876E+00
  0.91902267E+00  0.81419918E+00  0.55647287E+00
  0.38460619E+00  0.17249936E+00  0.57720400E+00
  0.54614010E+00  0.34119321E+00  0.17039367E+00
  0.29459142E+00  0.53922796E+00  0.65888773E+00
  0.57841572E+00  0.81179626E+00  0.40633300E+00
  0.43360821E+00  0.41976515E+00  0.67586662E+00
  0.12450378E+00  0.66829719E+00  0.56715102E+00
  0.64321873E+00  0.73395675E+00  0.91158121E+00
  0.88519323E+00  0.17367637E+00  0.90905303E+00
  0.43655138E+00  0.83160517E+00  0.91923813E+00
  0.12288821E+00  0.82417081E+00  0.42750307E-01
  0.94945281E+00  0.82378313E+00  0.14696293E+00
  0.58185905E+00  0.55210330E+00  0.27101636E+00
  0.95590422E+00  0.34138953E+00  0.81038471E+00
  0.13748312E+00  0.98961733E+00  0.74371886E+00
  0.74032277E+00  0.87436467E+00  0.48116876E+00
  0.43234171E+00  0.84028038E+00  0.31165621E+00
  0.16046044E+00  0.52945524E+00  0.31140713E+00
  0.67901510E+00  0.41148580E+00  0.35936242E+00