LLZO_Ia3d_Al00_partial_23               
   1.00000000000000     
    12.9652004242000007    0.0000000000000000    0.0000000000000000
     0.0000000000000000   12.9650001526000000    0.0000000000000000
     0.0000000000000000    0.0000000000000000   12.9650001526000000
   O    La   Zr   Li   Al
    96    24    16    56     0
Direct
  0.1070221037209189  0.1944078111193102  0.2821800872353774
  0.9044554652760507  0.8067111991442015  0.7064305084917007
  0.4012284474406640  0.8013165582035178  0.7802530315624904
  0.5952959467269017  0.1954575799152890  0.2168368596632602
  0.9013952514858454  0.6949552097141463  0.2192799543800223
  0.1072483332534775  0.3124211551835715  0.7884045909170988
  0.6057194094467601  0.3052063334120225  0.7114554731222129
  0.4004917673203189  0.6908336903748249  0.2807010219875053
  0.2887398802432569  0.1031702963948869  0.1894107500491401
  0.7171096974944758  0.8972480404435421  0.8020308348672520
  0.7807593041200690  0.3987709635700424  0.8062818133791224
  0.2113837550756111  0.5959281429473605  0.1911476447879644
  0.2154314696497723  0.9011514960260230  0.6939258991961169
  0.7722931505167624  0.0962115403721348  0.3103216223430615
  0.7157566002078393  0.5981840550378961  0.3079694774533871
  0.2849603682873799  0.4004693867797252  0.6935950181442954
  0.2015858934405598  0.2874769603232561  0.0954456683695325
  0.8116613677554300  0.7266302392921081  0.8946881623175582
  0.8083035948028426  0.7815670237753356  0.4042719457897682
  0.2000859491890392  0.2178384960993461  0.6014637192474058
  0.7037802399931775  0.2171924579427514  0.9017007970174686
  0.3090267678924324  0.7744002744480538  0.0967637939144613
  0.3031912463394554  0.7198046902353836  0.5981683640610997
  0.6983020192007638  0.2810996124900306  0.4020470468844399
  0.9408745911503745  0.3501316689597158  0.9682142483512722
  0.0436810127473323  0.6554349304606095  0.0282613498610064
  0.5494374484770475  0.6515994615369042  0.4697271496509393
  0.4468379917774395  0.3457363950653300  0.5299274922869234
  0.4513053014823971  0.1460125010770744  0.0275462157489588
  0.5565379727722611  0.8443726662591792  0.9656248963418098
  0.0505130928644569  0.8501031132463784  0.5295716009717756
  0.9481075894897977  0.1541878376257252  0.4712985580671484
  0.8456455888910388  0.5363548854483754  0.0556229970704037
  0.1479439741411866  0.4761603144468561  0.9516988696471906
  0.1565442899076496  0.0303800311695326  0.4390516378487033
  0.8509328811282415  0.9651374827565865  0.5377055184402045
  0.6540881023054120  0.4690263103467581  0.5507121408213649
  0.3518415557209335  0.5347271075560328  0.4492844775571620
  0.3503983011103053  0.9552288173206397  0.9501102803186000
  0.6461510418768519  0.0293088684767736  0.0601601676942105
  0.0318760519588222  0.4481960383825049  0.1479320740762578
  0.9667067990801236  0.5553328169266111  0.8474779257060484
  0.5241318654778550  0.0487201025857643  0.8473604852110884
  0.4691010007320072  0.9391818589672891  0.1521002902821078
  0.9721301540844417  0.9422174979384158  0.3409844147479936
  0.0392471333269641  0.0501151521536681  0.6406824426287163
  0.4649247064459501  0.5485204181519916  0.6518690867971982
  0.5364679167214821  0.4455510513672104  0.3503320297699642
  0.6002668525376466  0.6979525842022023  0.7794162109498867
  0.4037896779652307  0.3051289073014157  0.2126292119140297
  0.8957667403757120  0.3064861082091586  0.2841187031031653
  0.1027049303252177  0.6903892224192602  0.7101703824850932
  0.4009884870863148  0.2017509791906330  0.7115212343122062
  0.5966231101550418  0.7955055251511720  0.2807692016084236
  0.0987321371903545  0.7978906492090800  0.2155016836296327
  0.9106016116840847  0.2064939657130685  0.7872206997405858
  0.7842030795240575  0.5985864371518149  0.6920926460057342
  0.2298892888758365  0.4035656256053325  0.3061814311685035
  0.2894005869146222  0.8958730653915747  0.2909491074300684
  0.7327458025723166  0.0998733841869883  0.6902166261709632
  0.7157620909636743  0.3943734339199716  0.1935191452610975
  0.2849805381599502  0.6041610341287496  0.8044963719236988
  0.2185564384758726  0.0995586025081030  0.8091435926446602
  0.7892070516484362  0.8989759466748375  0.2086573780724443
  0.6936646694797257  0.7737207046835266  0.5971061005265473
  0.3014707443130830  0.2201220051364550  0.4009232309797152
  0.3125204550887303  0.2720636393113425  0.9032133188463896
  0.6997538925313710  0.7270533045315229  0.0993434311019951
  0.1975854576824625  0.7212823147822195  0.4004729276730830
  0.8066038124110914  0.2819822825694726  0.5974879442089730
  0.8090791914009159  0.2170559830897208  0.0990501013667113
  0.1880621744003370  0.7816769043756776  0.8964206015814070
  0.4432219141146926  0.8475099096704177  0.4658928134930871
  0.5640254836606710  0.1454758696161612  0.5240578666062832
  0.0561222298313073  0.1511165609565698  0.9699187819892752
  0.9443705107822655  0.8508438126114081  0.0304249244194396
  0.9466360185543030  0.6491011927734732  0.5308098505246224
  0.0588858907773704  0.3465629823018477  0.4748733189341319
  0.5571436272732195  0.3459099059432533  0.0256631371471855
  0.4498048886872060  0.6497583528704171  0.9631235724464323
  0.3471820353990396  0.0341807336380847  0.5529434673169296
  0.6422892646633467  0.9572708371851796  0.4376449312937200
  0.6515115941462557  0.5390695654014351  0.9450237179675486
  0.3533315175587854  0.4735019734240503  0.0604475705218967
  0.1505981125405587  0.9569230752452970  0.0451148303540587
  0.8526248753284376  0.0323970966257833  0.9396378537881499
  0.8509179308581228  0.4665945321338699  0.4459597864753092
  0.1547969642459250  0.5297464703974786  0.5504754986610524
  0.5256971124309527  0.9392164489983246  0.6506107661367804
  0.4623092951171453  0.0593108203994230  0.3555190777083257
  0.0337611565139856  0.5583957115440839  0.3507011310075351
  0.9629985096026420  0.4538041805486492  0.6508705576569016
  0.4790211960342854  0.4387938819299042  0.8469972418915112
  0.5406935489858875  0.5568455353752552  0.1444427068288342
  0.9827818702647730  0.0575316148431850  0.1474393320897558
  0.0360857408178449  0.9596175747878762  0.8414846186832646
  0.1275599493505750  0.0004991846238106  0.2467034133327136
  0.8692158689251427 -0.0023062376469850  0.7494915016550501
  0.3794383140679852 -0.0005979919528894  0.7480837028609757
  0.6246571616020905  0.9981136945394395  0.2489611151896098
  0.8743091340763237  0.4952783270132280  0.2504790793332138
  0.1284988324306334  0.4984389669758157  0.7509054202914078
  0.6263291341969828  0.4979395016884777  0.7487419338610576
  0.3793923755030509  0.4989276882326331  0.2475788966592068
  0.2543737294017582  0.1195467890546889  0.0014178598645952
  0.7509955709596715  0.8773145082003987 -0.0030829121296106
  0.7478209004575658  0.3703194633061838  0.0028620278479024
  0.2551802012239011  0.6210631949480248  0.9946044904988316
  0.2542503791576733  0.8716609608097708  0.4947684487295683
  0.7508388250916994  0.1207008313978980  0.4982110684022682
  0.7507202143802925  0.6276245188262239  0.4973135904326934
  0.2507358271972440  0.3740366123355746  0.4984884234636638
  0.0001403659271073  0.2492261094528677  0.1312214875422087
  0.9973193883443919  0.7453376947263023  0.8682228975840051
  1.0029335239423054  0.7462685874666463  0.3750723090058447
  1.0024002490698620  0.2471002963562902  0.6229083189732593
  0.5032288027852448  0.2457434367356788  0.8730425103984056
  0.5051085827003847  0.7449474818677401  0.1233751042228284
  0.5025317596331816  0.7513546606149475  0.6232430325763330
  0.5030123961604995  0.2480875683280756  0.3788013155564072
 -0.0020198011267415  0.0008575475279240  0.0014221643825373
  0.5027377412220269  0.9995410168852170  0.5024923309300301
  0.0041721138228070  0.4954602754513217  0.4944647958889966
  0.5006619082737350  0.4961426696994119  0.9961191278392194
  0.7515816690242154  0.2434423064475312  0.2476785664930315
  0.2501381118707804  0.7513134324750345  0.7489393747206996
  0.7514492835009406  0.7503145247386196  0.7452227374217156
  0.2516381088736667  0.2555421394374588  0.2478375122317999
  0.2529509509340692  0.2519715692225910  0.7540083805647466
  0.7510177827403782  0.7486302948210906  0.2511862213939801
  0.2475518362511608  0.7428230651060581  0.2456160566972397
  0.7501796842069866  0.2461394334142275  0.7502461166025046
  0.5017175889939421  0.4975562188039189  0.5004320384181405
 -0.0038055251012014  0.5014879855781175 -0.0007025069403193
  0.5022710858624082  0.9962459481913505  0.9972478458135045
  0.9989562957530842  0.0051825097703177  0.4871546048603786
  0.1944017290735325  0.3430515208419750  0.9480054960554505
  0.0673799042127980  0.1158196974815327  0.8308256737670869
  0.3907851419460073  0.6791890911690884  0.4282573403684373
  0.0608244913358609  0.6457295564862183  0.1729437083957245
  0.5715087315351508  0.8524596604101253  0.8206476535581284
  0.3296136197130015  0.9150367871341052  0.1314176710505549
  0.4340753608871628  0.8389385173120943  0.3203904561499482
  0.1827364206650871  0.4346265621771718  0.1035328018237123
  0.8894322858345242  0.6851861070287821  0.0732639984429434
  0.3174679297451989  0.0790038040305549  0.4090657045524712
  0.1944041793657594  0.0768285929853834  0.5779789018211022
  0.8184657762401678  0.4264488968817370  0.5946758527100844
  0.6861136127926312  0.4253525003378442  0.4012479342309500
  0.6045812702494632  0.6848577082066303  0.9242038273784365
  0.3228917108680741  0.5743292823873725  0.5996492698192750
  0.5950108715533053  0.1796086386727097  0.0735007893234793
  0.8428963728949208  0.3216289814380718  0.4363061561318685
  0.8807722680749303  0.8243960521547496  0.5571710007385245
  0.3492285832754621  0.1808183422039846  0.5681845634705087
  0.4371232477688184  0.1668454352493458  0.1681114076453027
  0.1648501497481608  0.6709622342447369  0.5620495844770756
  0.8252673513761909  0.9227758056651982  0.3667381496147079
  0.4306739882068609  0.3642747294560201  0.6719624691586651
  0.0660650698352692  0.8913411193961072  0.6682716171652393
  0.4142813770344083  0.8092599732623399  0.9232552789424481
  0.8723726552497409  0.1807735878433481  0.9263685692067734
  0.1714926620854800  0.9279180299957774  0.8778468361192705
  0.0833682557305651  0.8052449491501410  0.0719311261759376
  0.7920503368357301  0.5902069030397274  0.9268707412990748
  0.5631762717437241  0.6501736184383353  0.3262760913803957
  0.9286887398761017  0.6067308580286448  0.6667295464317514
  0.9208014226107165  0.3621474834807032  0.8215492246967087
  0.8750371697903382  0.0265033453154810  0.2349645559767299
  0.5892569930224909  0.8113989014622915  0.4217281195148913
  0.1196494838277799  0.4856070583816813  0.2619659072872563
  0.5525588499165351  0.3347305192976240  0.1689733533931045
  1.0097505764899262  0.7432297940283998  0.6183765129174948
  0.6927092371617817  0.5844697683555592  0.0850279194563114
  0.3549343431779832  0.3276718318602427  0.0575585870143530
  0.2059862354023337  0.5777800802861272  0.4107847996631002
  0.4417093041518653  0.6566968724734481  0.8195555617147094
  0.3686549917997302  0.4920170450227661  0.7723617048748902
  0.0009410891780015  0.2523529863908037  0.3689457760380014
  0.9339065205059370  0.8491920672434300  0.1801887754486456
  0.1542247652900106  0.1764911816295261  0.4256727107549723
  0.3808764664789945  0.0083450035715532  0.2535459510998256
  0.5238971101831301  0.2147538726137375  0.6369271883238385
  0.2501120347747404  0.8600379574495151 -0.0006328917146069
  0.6273133274834076  0.4967719864670549  0.2435736933006898
  0.6281383751803358  0.0112694341741021  0.7428829398254714
  0.1382861613966412  0.0124881435155967  0.7351376994350625
  0.7477090069379582  0.1124879590410940  1.0067896829988698
  0.8633241520740733  0.5031911362932074  0.7624413973346559
  0.6610629315323928  0.3248487339114227  0.5615335984834893
  0.0251647999494577  0.2642283794684384  0.8923046933865586
  0.7275794617406584  0.8865024555502581  0.5221529591733105
