LLZO_Ia3d_Al30_partial_27               
   1.00000000000000     
    12.9652004242000007    0.0000000000000000    0.0000000000000000
     0.0000000000000000   12.9650001526000000    0.0000000000000000
     0.0000000000000000    0.0000000000000000   12.9650001526000000
   O    La   Zr   Li   Al
    96    24    16    47     3
Direct
  0.0968090977925906  0.1808109218196163  0.3002651142189328
  0.9118960651466215  0.7829019664534472  0.7149837308592499
  0.3976075058085755  0.8133341316708274  0.8105072869789272
  0.6139083983053790  0.1853899289530117  0.2359014819737544
  0.8980182550651826  0.6861084838918353  0.2317230126155101
  0.0898675074876452  0.2993736589491587  0.7677995501643601
  0.6012588044074296  0.2937321628251061  0.7150405654528373
  0.3929492121150692  0.7008900458277741  0.3016829039923994
  0.2816344954360129  0.0981672622039870  0.1810939490482215
  0.7129083409810700  0.8829815869225484  0.8132102365648810
  0.7852048452697387  0.4001366533799543  0.8122740725000247
  0.2318309592755563  0.5998515127512891  0.1837623267496050
  0.2277269850426203  0.8993490248286794  0.7086955411171804
  0.7760885154204025  0.1053217224602776  0.3117378154047277
  0.6982574410183072  0.5915741012605039  0.3152872749478410
  0.2875152988139517  0.3984321658410462  0.6932366234037175
  0.1898940630634670  0.2842530740414422  0.1061727185756559
  0.8088507501600202  0.7177193281490972  0.9083248923645361
  0.8028225910794972  0.7595529631283694  0.4074514024300449
  0.1811690382956581  0.2283097856276163  0.6057607366171680
  0.6879833715858459  0.2130680669735149  0.8802378236376156
  0.3027159114410323  0.7793439968556999  0.0786750301532315
  0.3168885467661794  0.7100723551715510  0.5932229166388479
  0.7007627409048308  0.2710250874287515  0.4032231670622653
  0.9380083061636070  0.3487497843019712  0.9634202854932274
  0.0273294973419063  0.6682217849654442  0.0687435234106346
  0.5685131540290863  0.6489635337977396  0.4764579615644098
  0.4427437734054033  0.3526239894809033  0.5303153013390897
  0.4672685951889883  0.1541564669824564  0.0442546341536577
  0.5643536840663774  0.8407981305796148  0.9708896586240726
  0.0364696789364908  0.8282149075872389  0.5196670808800339
  0.9472926052048019  0.1289479237099164  0.4951659747500742
  0.8335169453453597  0.5372636083760571  0.0106502630257412
  0.1425135509277369  0.4742697230265036  0.9630637403978046
  0.1509827976010409  0.0044797025338432  0.4413952218144310
  0.8449293770926961  0.9440747888660346  0.5351524158924760
  0.6500963323815726  0.4784920752718481  0.5943344687451270
  0.3523075628518318  0.5371415075509870  0.4534021248298940
  0.3413483450858359  0.9790813724854476  0.9339574508393793
  0.6414155352553402  0.0266583473129126  0.0591341512154559
  0.0214401119826447  0.4588178865181760  0.1616421097701775
  0.9808094425382513  0.5779194036812990  0.8267730941276843
  0.5393320418208274  0.0400098986407760  0.8447348183976146
  0.4409852473100418  0.9465853912149560  0.1438738329167620
  0.9709139777820630  0.9653954118253143  0.3565455194104201
  0.0207142910443934  0.0068734265564895  0.6530490176461581
  0.4664658664262314  0.5617377875609715  0.6474920501636393
  0.5274607458406300  0.4566518895731952  0.3495009244709384
  0.6053879797820477  0.6988378993219339  0.7743487071535622
  0.4081811386921724  0.3074918895456013  0.2393119293583376
  0.8946598613774580  0.3031951710610994  0.2530549431919691
  0.1026434617296840  0.6957182723096497  0.7314812591402742
  0.3956413137520263  0.1835266111335081  0.7449211660550100
  0.5873235812778754  0.7955429464797534  0.2860774160513551
  0.0957022205572379  0.8131968121012800  0.2157792550088196
  0.8932718098226032  0.1739514369004565  0.8012232331066188
  0.7650729036735773  0.5780039794471512  0.7121182978050180
  0.2347652093442494  0.4010174469895041  0.2896210124324210
  0.2784249609431288  0.9108014917764349  0.2969807773766670
  0.7328859157528828  0.0793365342710839  0.6798555867157984
  0.6964040414958856  0.4045459015230342  0.1872715474489306
  0.2983192395466097  0.6003198548256784  0.8129442357846688
  0.1764126720647192  0.0914622223279499  0.7912088395780542
  0.7693839091863536  0.8893427890612077  0.2227002509746471
  0.7094520174913964  0.7631511984753959  0.5979310311614646
  0.2787658159431177  0.2170984485387299  0.3995630809425800
  0.2978517445409359  0.2694690525412213  0.9060989282738801
  0.6940399419034823  0.7127136141381103  0.1067027934458593
  0.2036374890913912  0.7245207999239545  0.3982974649492279
  0.7986528024208324  0.2865709168185947  0.6118318851004377
  0.7834308319982726  0.2330323278148908  0.0916545613319527
  0.1842855602101974  0.7700233468375165  0.9010337913409118
  0.4460173780688126  0.8590076446968299  0.4595863895053426
  0.5383084733215354  0.1450534102585851  0.5267536920976768
  0.0626309580932397  0.1576715374312722  0.9698972388668535
  0.9336079874590753  0.8570763332656697  0.0334590419617364
  0.9606137944657329  0.6473927255615236  0.5610467785254365
  0.0679117496825909  0.3585343036387569  0.4405671804758848
  0.5520200613620040  0.3461199748790038  0.0369451946694461
  0.4417767216736499  0.6327385188507731  1.0047410073340108
  0.3514583268800723  0.0292887472773198  0.5621538898857262
  0.6539508003710433  0.9462525582489183  0.4666166482555980
  0.6521659924706422  0.5387266464305686  0.9371791889273917
  0.3499234468465258  0.4530148606546356  0.0488740699628045
  0.1466219555149187  0.9851555569073144  0.0737742379732322
  0.8374656859107753  0.0267281295055263  0.9659402954672756
  0.8479056203202731  0.4848207954070402  0.4611225316842805
  0.1776769229263976  0.5208217711741054  0.5755449809911336
  0.5134791131113209  0.9198398388152784  0.6684769619172292
  0.4845494486907174  0.0665283760790936  0.3720170657064748
  0.0365007181041201  0.5636261234163163  0.3634647286430525
  0.9908736243780629  0.4587903314635566  0.6608649149469873
  0.4623867863255209  0.4321965091677268  0.8480837350670034
  0.5347377687219769  0.5558972156277456  0.1600905582709466
  0.9374808579199857  0.0882280513325844  0.1604637759491697
  0.0400626021035796  0.9378329812406054  0.8751594237136332
  0.1195524967350038  1.0118583148331348  0.2571340089421456
  0.8650308897585850 -0.0029931270168608  0.7685467020077336
  0.3764371365357499  1.0053928891436255  0.7562675692639843
  0.6185150446041087  1.0144185456119743  0.2466514028219838
  0.8762382624022267  0.4951118724183991  0.2677617171158376
  0.1441760825998254  0.4889054941531420  0.7509580805897381
  0.6083992735755389  0.5048527054937058  0.7571814432139362
  0.3752456022413023  0.5225909224927956  0.2502497790015124
  0.2399064393353580  0.1298287560501684 -0.0146246270631315
  0.7448807587041462  0.8901732605260609  0.0263080402039693
  0.7561565538528514  0.3669959016184566 -0.0080827306984106
  0.2458653861157618  0.6189214779486298  0.0011871742785356
  0.2525375171221968  0.8627740596141682  0.4869734095197176
  0.7534466817615743  0.1016633806699988  0.5028383819990085
  0.7537461627184419  0.6052887113808847  0.5237821839521146
  0.2677009343549770  0.3971738945627067  0.4897281348109974
  1.0094857023455426  0.2566166518963077  0.1235263730094198
  0.0060054486475544  0.7656809757896450  0.8827482608003029
  1.0048134363781189  0.7419992611485743  0.3714619589930889
 -0.0139309631626064  0.2414484268979977  0.6236754972697274
  0.4973820691255281  0.2334379233983880  0.8702678807566273
  0.4907870956472492  0.7656340116942251  0.1066525850929325
  0.4985721828966823  0.7474371429087612  0.6142860658382522
  0.5041969753925805  0.2375446056898700  0.3902677941793434
  0.9845012144770662  1.0064025763392799  0.0177538124380974
  0.5025149931176301  0.9995385283612932  0.5233670366985268
  0.0112880409853131  0.5079804240349275  0.5097779884956222
  0.5164932777001765  0.4888503883105716  0.0062109318803975
  0.7533664119493864  0.2590274829644355  0.2733281707913740
  0.2632618073184725  0.7533747773133619  0.7514382397135312
  0.7558448986835234  0.7310314708116965  0.7621054363621013
  0.2471621162864254  0.2450482936294174  0.2447097150539205
  0.2409203626090050  0.2453194635776538  0.7464257788772328
  0.7453918421553386  0.7488378558920353  0.2621018178556955
  0.2471456755161124  0.7402684736928919  0.2374762674242618
  0.7500373213686976  0.2324939838345054  0.7388451694108945
  0.5135318052238355  0.5038024851460909  0.5098859149583433
 -0.0070008495962416  0.5160471129409593  0.9885853086465890
  0.4883936882966423  1.0074313115523139  0.0026310687599305
 -0.0150132351144671 -0.0161862752590062  0.5066476927069575
  0.9250767337924301  0.9427210951334173  0.2285221469456113
  0.9371697087301541  0.3656971447584144  0.7972037986384313
  1.0543654314508508  0.3150538927366242  0.9132086849756217
  0.4580703383697266  0.1856620862000851  0.1597311574288433
  0.3207745815081465  0.8345931757644393  0.9437571072430294
  0.0648167482425019  0.3932151218376865  0.2775431820714950
  0.1509972436536742  0.1695265831414161  0.4540102148864233
  0.8325065756165914  0.7945847919330162  0.5462021379725734
  0.8488431052483544  0.1815151919759694 -0.0466379250114788
 -0.0883177007668656  0.1023724543767812  0.2918642025160915
  0.8970343185411659  0.5524096638412102  0.6775486162477600
  1.1413875820571426  0.8298466897920663  0.0835548828102266
  0.2183387357493430  0.6244534153022403  0.4920398488656854
  0.6790599777082883  0.0754652350961894 -0.0929499737532395
  0.5464549969476571  0.3312246984535760  1.2046321451877011
  0.5439083576656532  0.6702480416904151  0.3055637944607491
  0.2909997349683047  0.0588713127306739  0.3884545840468838
  0.3852203785678855  1.0190618363970203  0.2595118986466244
  0.9779660664703826 -0.2356924369673565  0.1406196182597249
 -0.1976218829327365 -0.0446042525028123  0.3757725535054589
  0.6269543145593133  0.9727590877795395  0.7326410304938886
  0.5751286981141326  0.8252794732926050  0.8182822881175977
  0.3149458191988584  0.5692492344575123  0.6699197146543309
  0.3341112093377935  0.4479086494017532  0.8573662809436555
  0.3108119830336886  0.1872266513975572  0.5414390167645723
  0.5963387441661171  0.1844804268505205  0.0656880041466932
  0.8025637942254259  1.1084598394829994  0.1073145435459868
  0.4249022607672646  0.3993356620944078  0.7174402945440351
  0.2979027580255780  0.9251077067518602  1.1046740218698876
  0.7224208947758304 -0.1027175842000890  0.5626503462687046
  0.0904594741143683  0.9762280073640286  0.7544770505048041
  0.8309741084187205  0.5244526085035207  0.8469569240949442
  0.2197853562928148  0.4284551535420919  0.1325987492878526
  0.3616828893658118  0.6758557868384749  0.4453383415331452
  0.1856012032644492  0.0607299328596125  0.6481930870318938
  0.5000501385458902  0.2373700752764664  0.6380396860615702
  0.8088384947497779  0.4465750475100303  0.6531804491120425
  0.7576484768179981  0.3821496176846385  0.4963864337724934
  1.0683261423504962  0.6066362914457064  0.2113669839268322
  0.4730171190464004  0.8339573191430886  0.3296487593296291
  0.4445715203888057  0.6941689975652959  0.8822869835760510
  0.1837281276304641  0.9282429965833390  0.8641892490911747
  0.6326783540508363  0.8020456958713785  0.4481816950670273
  0.0573837910797753  0.1514318821961268  0.8182838289093107
  0.3789004827217609  0.3201810987982527  1.0595155209265863
  0.2408320666473238  0.3732455354271383  0.9798454212621596
  0.9867574507511165  0.2482859217557371  0.3723239247083875
  0.6194266286201915  0.5017088853712927  0.2489258050808228
  0.0220810409543518  0.7496570692407521  0.6322208053689004
  0.7401264437339802  0.6367627221024986  0.0059891285309513
 
 -0.18011548E-02  0.33304308E-02 -0.10677947E-02
 -0.14815671E-01 -0.37277769E-02 -0.12762152E-01
 -0.51035814E-02  0.35353844E-02  0.57201899E-02
 -0.14035368E-01 -0.10551483E-01 -0.30391698E-02
 -0.24740516E-03 -0.36979175E-02  0.18141270E-01
  0.76585357E-02  0.59567348E-02 -0.34182390E-02
  0.18719612E-02  0.12848825E-01 -0.12085339E-01
  0.69750589E-03 -0.67199218E-02  0.11218768E-01
  0.11160417E-02 -0.92192395E-02 -0.96878575E-02
 -0.10250189E-01 -0.14690935E-01  0.19387990E-02
  0.38475021E-02 -0.24190204E-02  0.10000411E-01
  0.10646053E-01 -0.20226156E-02 -0.25112905E-05
  0.52554800E-02 -0.38045759E-02 -0.54813242E-02
 -0.14319680E-01  0.75707302E-02 -0.14308672E-02
 -0.63291620E-03  0.22645338E-02 -0.30544665E-03
  0.13034925E-01 -0.14669440E-01 -0.10024896E-01
  0.20939408E-02  0.25098996E-01  0.14421515E-02
  0.55950155E-02 -0.16563438E-01  0.23443671E-02
 -0.66738646E-02 -0.55379695E-02  0.59148824E-02
 -0.95851975E-02 -0.33774759E-02  0.19318910E-01
  0.75463826E-02 -0.14309531E-01 -0.28409239E-02
 -0.10719550E-01  0.10847937E-01 -0.23705731E-02
 -0.23031499E-02 -0.12554947E-01  0.33280986E-02
 -0.60812743E-02  0.16605288E-02  0.15489784E-01
 -0.98385886E-04  0.88889117E-02  0.82565890E-02
 -0.20261689E-02 -0.18988487E-03 -0.38927819E-02
 -0.69260637E-02  0.11402968E-02  0.15686887E-01
 -0.55641629E-02 -0.56481168E-02 -0.11556437E-01
  0.37947465E-02 -0.10770596E-01 -0.24387697E-02
 -0.75076166E-02  0.43024141E-02 -0.50719394E-02
 -0.21532074E-02  0.11370110E-01  0.45879603E-02
  0.30954636E-02  0.58041928E-02  0.39886547E-03
 -0.21935532E-02  0.85241585E-02 -0.27133114E-02
 -0.13461676E-01  0.14245035E-01 -0.25475602E-02
 -0.50972904E-02 -0.19892459E-02 -0.62593229E-02
  0.17405214E-01 -0.67230579E-02 -0.69625079E-02
  0.82769685E-02  0.17733578E-02  0.44993156E-02
  0.45430774E-02 -0.65892967E-02 -0.81517813E-02
  0.21906469E-03  0.11100648E-02  0.14033237E-01
 -0.20518624E-01 -0.32653706E-02  0.17678830E-02
 -0.32613427E-02 -0.27016182E-02 -0.68108106E-02
 -0.10110991E-01  0.67682178E-02  0.11169356E-01
 -0.11482722E-01 -0.11755721E-01  0.30350923E-02
  0.66446315E-02 -0.26428302E-03  0.37134710E-02
  0.15205496E-01  0.97050398E-02  0.43709516E-02
 -0.13803489E-01  0.64132846E-02 -0.15843595E-02
  0.91599194E-02  0.27731032E-02  0.29977491E-02
 -0.11165658E-01  0.79241409E-02 -0.17557301E-01
  0.50076612E-02  0.57491911E-02 -0.57922812E-02
  0.95831817E-02  0.10692620E-01  0.13683260E-02
  0.17050161E-01  0.13977840E-01  0.14180433E-01
 -0.14399959E-01 -0.58984941E-02  0.45856655E-02
  0.17750913E-01  0.84475950E-02 -0.32082362E-02
 -0.21661563E-02 -0.32778529E-02 -0.11865125E-01
  0.22985336E-01 -0.22334059E-01  0.63292533E-02
  0.16566334E-02 -0.48427328E-02 -0.47231271E-02
 -0.29711824E-02 -0.71692705E-02 -0.46824147E-02
 -0.49897419E-02 -0.29661608E-04 -0.13675837E-01
 -0.31117763E-02  0.16421076E-01 -0.12009301E-01
  0.63431786E-02  0.11357236E-01 -0.25022883E-02
  0.91890766E-03 -0.32934325E-02 -0.55140514E-02
  0.42092210E-02  0.34743093E-02 -0.11270131E-01
 -0.13128903E-03  0.12317480E-01 -0.82245357E-03
  0.24639512E-01 -0.75345438E-02 -0.17296835E-01
 -0.71806394E-02 -0.10930718E-02  0.39815400E-02
 -0.51280195E-02 -0.13654259E-03 -0.87943945E-02
 -0.35903225E-02 -0.23634150E-01  0.12544142E-01
  0.80823516E-02 -0.13153519E-01 -0.20366188E-02
 -0.84761220E-02  0.11361475E-01 -0.13992563E-01
 -0.24549157E-02  0.46124854E-02 -0.42547344E-02
  0.85299039E-02 -0.27347253E-01 -0.82617237E-02
 -0.24708821E-02 -0.13610076E-01  0.10122095E-01
 -0.15623580E-02  0.10309798E-01 -0.24161379E-02
  0.72647365E-02  0.75503266E-02  0.79046997E-02
 -0.39271412E-02 -0.12606240E-01  0.54813672E-02
  0.12009148E-01  0.11012908E-01 -0.72212155E-02
  0.30408613E-02 -0.64738768E-03 -0.14732139E-01
 -0.51772940E-02  0.11553206E-01  0.94147604E-02
 -0.50401170E-02 -0.56548135E-02  0.70380016E-02
 -0.13914600E-01  0.12856489E-02  0.51527416E-02
 -0.19686412E-02 -0.84197754E-02 -0.47779858E-02
 -0.70882452E-02 -0.15589150E-02  0.51594568E-04
 -0.76200149E-02  0.42563777E-02 -0.13792237E-01
 -0.61534694E-02 -0.85663587E-02 -0.82191502E-02
 -0.15120874E-02  0.81968080E-02  0.69549250E-03
 -0.11856015E-01  0.11323721E-01  0.41140979E-02
 -0.16111407E-01 -0.12497709E-02  0.49338173E-02
  0.26050091E-02 -0.25009428E-02 -0.14865902E-01
  0.27749888E-02  0.81769109E-02  0.43799580E-02
 -0.62748954E-02 -0.91001881E-02 -0.46054280E-02
  0.79986201E-02  0.15198118E-01  0.13484458E-01
 -0.13228310E-01 -0.62667135E-02 -0.37377790E-02
  0.70021627E-02  0.35663649E-02 -0.87038892E-02
  0.12500162E-02  0.21248607E-02 -0.88855432E-02
  0.10321267E-01  0.76900035E-02 -0.74256432E-02
  0.47544182E-02  0.42459899E-02  0.40482358E-03
  0.11180005E-02 -0.18507895E-02 -0.23827108E-02
 -0.20707395E-02 -0.10666480E-02  0.39568511E-02
 -0.48195242E-03  0.20867455E-02 -0.48674315E-02
  0.25648148E-02  0.43144337E-02 -0.96911326E-02
 -0.64496417E-02  0.20325416E-02  0.94886505E-03
  0.77359797E-02 -0.28152967E-02  0.30534721E-02
 -0.92231801E-04  0.23192696E-02  0.27219058E-03
 -0.31952770E-02  0.41780111E-02 -0.24153189E-02
 -0.58127394E-02 -0.32097870E-02 -0.19641969E-02
  0.18750788E-02  0.43395174E-03 -0.46286512E-02
 -0.99108542E-02 -0.33461557E-02  0.13935330E-02
  0.77869936E-02  0.33525710E-02 -0.37994535E-02
 -0.40133321E-04 -0.20732439E-02  0.18935199E-02
 -0.12772673E-02 -0.55339406E-02  0.15907222E-02
 -0.97773413E-03 -0.28263281E-02  0.30253867E-02
 -0.33876593E-02  0.24533724E-02  0.21166061E-02
  0.39911892E-02  0.39100089E-02  0.41677982E-02
  0.38435206E-02 -0.26640513E-03  0.10361222E-02
 -0.29729585E-03  0.10975471E-02  0.17318842E-02
  0.15158641E-02  0.85300760E-03  0.16031885E-02
 -0.39306566E-02  0.27841097E-02 -0.37572238E-02
 -0.12979988E-02 -0.17914887E-02  0.55179545E-03
  0.37208611E-03 -0.12814087E-02 -0.22755195E-03
  0.34184253E-02  0.15733235E-02  0.51405063E-02
 -0.16466214E-02  0.40988117E-02  0.36864288E-02
 -0.44212836E-02 -0.56308933E-02 -0.38134914E-02
  0.69685971E-02 -0.45280786E-03 -0.43833686E-02
 -0.62146300E-03  0.23450535E-02 -0.80461322E-02
 -0.19235385E-02 -0.11600843E-02  0.32517012E-02
  0.10612318E-01 -0.61288323E-02  0.60720988E-02
 -0.31841664E-02  0.20334636E-02 -0.24653383E-02
  0.34383654E-02 -0.25083043E-02 -0.81736546E-03
 -0.17530247E-02  0.35994473E-02 -0.73465709E-02
  0.24246964E-02  0.10222968E-02  0.12412724E-02
  0.80296915E-02 -0.45794317E-02  0.83417144E-02
 -0.12923918E-02 -0.12390108E-02  0.65037971E-03
 -0.33936561E-02  0.74824655E-02 -0.28632035E-02
 -0.80113483E-03 -0.63038531E-02  0.72559484E-02
  0.49921304E-02  0.44628806E-02  0.62664843E-02
  0.61430999E-03 -0.19065333E-02  0.44643979E-02
 -0.14733713E-01 -0.86961942E-02  0.15065855E-01
  0.10414827E-02  0.99874340E-04 -0.16212217E-02
  0.38773362E-05 -0.33225379E-03  0.72974821E-02
  0.18430903E-01  0.12969069E-01  0.55045903E-02
 -0.14694871E-01  0.13902114E-01  0.21177061E-01
 -0.13980642E-01 -0.74300939E-02 -0.83764213E-02
  0.10938885E-01  0.24639023E-01  0.17863451E-01
  0.89398818E-02  0.10830484E-01 -0.10776831E-01
 -0.16405796E-01 -0.13064602E-01 -0.21939849E-02
 -0.16620019E-01 -0.64521522E-03 -0.10764266E-02
  0.17389698E-01  0.69405079E-02  0.18964490E-01
  0.16203746E-01 -0.18332109E-01 -0.25273574E-02
 -0.58259341E-02 -0.46556853E-02 -0.11158628E-01
 -0.11516196E-01 -0.12488410E-01  0.29326430E-02
 -0.32058622E-01 -0.74108460E-02 -0.77323937E-02
 -0.81238380E-02 -0.11876903E-01  0.21233816E-02
 -0.25601703E-01  0.44430562E-03 -0.72170865E-02
  0.67008725E-02 -0.13541710E-01 -0.61284139E-03
 -0.67123440E-02 -0.17910137E-01  0.43219304E-02
 -0.12863841E-01 -0.14666558E-01  0.73290805E-02
  0.20668408E-02  0.73324502E-02  0.14057962E-01
  0.29156742E-02  0.42538544E-02  0.13889886E-02
  0.29617115E-02 -0.34547362E-01 -0.10681287E-02
  0.32308527E-02 -0.45936106E-02 -0.12141300E-01
  0.47792026E-02  0.18705994E-02 -0.20914822E-01
  0.30333756E-01  0.41606804E-02  0.23431721E-01
  0.81803325E-02 -0.22305525E-01  0.36535620E-01
 -0.42758868E-02 -0.94710417E-02 -0.29255242E-02
  0.38494951E-02  0.10185133E-01  0.30334821E-02
 -0.16179094E-01 -0.16696804E-01  0.10225428E-01
  0.13840694E-01 -0.19563235E-01  0.12656439E-01
  0.48879942E-02 -0.68627566E-02  0.17435488E-01
  0.25345805E-02  0.22395249E-01  0.92390222E-02
  0.21228706E-01  0.11992070E-01 -0.42285713E-02
 -0.18731251E-03  0.17296365E-01 -0.28850505E-02
 -0.40086621E-02  0.20153301E-02  0.16385942E-01
  0.10469849E-01  0.15182876E-01 -0.89557538E-04
 -0.28387603E-01 -0.61635691E-02  0.89997360E-02
  0.21659820E-02 -0.13625807E-01 -0.11133611E-01
  0.10029799E-01  0.65178042E-02  0.57294714E-02
 -0.37334221E-01  0.67619062E-02 -0.17578543E-01
 -0.88607903E-02  0.15625539E-01 -0.15064567E-01
  0.13004135E-02 -0.13205947E-02 -0.33246612E-01
 -0.68934878E-02  0.15203532E-02  0.20456792E-01
 -0.11902393E-02  0.38020474E-02 -0.17933887E-01
  0.56327912E-02 -0.26402317E-02 -0.35385232E-02
  0.11721252E-01 -0.14826182E-01  0.51000878E-02
  0.96927851E-02  0.37102162E-03  0.23698184E-02
  0.19177755E-02  0.61364349E-02 -0.11213737E-01
  0.37083478E-02  0.10565455E-02  0.28944813E-02
 
           1
   2.00000000000000     
 -0.56768180E+00  0.70324627E-02  0.58333134E-02 -0.57411468E+00
  0.96531253E-01  0.18132468E+00  0.30010039E+00
  0.90961061E+00  0.78232691E+00  0.71301502E+00
  0.39682023E+00  0.81387951E+00  0.81138969E+00
  0.61174332E+00  0.18376224E+00  0.23543266E+00
  0.89798009E+00  0.68553804E+00  0.23452151E+00
  0.91048906E-01  0.30029255E+00  0.76727225E+00
  0.60154757E+00  0.29571424E+00  0.71317626E+00
  0.39305681E+00  0.69985342E+00  0.30341353E+00
  0.28180666E+00  0.96745089E-01  0.17959949E+00
  0.71132716E+00  0.88071534E+00  0.81350932E+00
  0.78579836E+00  0.39976349E+00  0.81381675E+00
  0.23347321E+00  0.59953950E+00  0.18376194E+00
  0.22853769E+00  0.89876213E+00  0.70784998E+00
  0.77387957E+00  0.10648959E+00  0.31151709E+00
  0.69815981E+00  0.59192343E+00  0.31524016E+00
  0.28952605E+00  0.39616924E+00  0.69169017E+00
  0.19021707E+00  0.28812488E+00  0.10639519E+00
  0.80971383E+00  0.71516423E+00  0.90868654E+00
  0.80179309E+00  0.75869867E+00  0.40836384E+00
  0.17969043E+00  0.22778877E+00  0.60874090E+00
  0.68914747E+00  0.21086066E+00  0.87979958E+00
  0.30106232E+00  0.78101742E+00  0.78309342E-01
  0.31653326E+00  0.70813561E+00  0.59373631E+00
  0.69982465E+00  0.27128124E+00  0.40561264E+00
  0.93799313E+00  0.35012100E+00  0.96469396E+00
  0.27016942E-01  0.66819249E+00  0.68143017E-01
  0.56744475E+00  0.64913944E+00  0.47887784E+00
  0.44188545E+00  0.35175270E+00  0.52853259E+00
  0.46785397E+00  0.15249498E+00  0.43878426E-01
  0.56319557E+00  0.84146183E+00  0.97010725E+00
  0.36137527E-01  0.82996888E+00  0.52037483E+00
  0.94777011E+00  0.12984329E+00  0.49522750E+00
  0.83317857E+00  0.53857856E+00  0.10231704E-01
  0.14043697E+00  0.47646718E+00  0.96267075E+00
  0.15019649E+00  0.41728385E-02  0.44042965E+00
  0.84761429E+00  0.94303768E+00  0.53407837E+00
  0.65137313E+00  0.47876564E+00  0.59502854E+00
  0.35300837E+00  0.53612503E+00  0.45214462E+00
  0.34138214E+00  0.97925261E+00  0.93612224E+00
  0.63825035E+00  0.26154626E-01  0.59406867E-01
  0.20937020E-01  0.45840113E+00  0.16059146E+00
  0.97924973E+00  0.57896348E+00  0.82849610E+00
  0.53756073E+00  0.38196444E-01  0.84520302E+00
  0.44201024E+00  0.94654462E+00  0.14444668E+00
  0.97325956E+00  0.96689253E+00  0.35721979E+00
  0.18584977E-01  0.78627493E-02  0.65280461E+00
  0.46787887E+00  0.56216557E+00  0.64795449E+00
  0.52573834E+00  0.45787428E+00  0.34679251E+00
  0.60616046E+00  0.69972478E+00  0.77345518E+00
  0.40965943E+00  0.30914135E+00  0.23952301E+00
  0.89729000E+00  0.30535141E+00  0.25524244E+00
  0.10042214E+00  0.69480836E+00  0.73218865E+00
  0.39837955E+00  0.18482975E+00  0.74442626E+00
  0.58698943E+00  0.79503730E+00  0.28424708E+00
  0.99247918E-01  0.80975153E+00  0.21675561E+00
  0.89352736E+00  0.17320439E+00  0.80049464E+00
  0.76461457E+00  0.57689804E+00  0.71139598E+00
  0.23399550E+00  0.40101287E+00  0.28751136E+00
  0.27794494E+00  0.91333463E+00  0.29512820E+00
  0.73386441E+00  0.81088518E-01  0.67946958E+00
  0.69654579E+00  0.40403785E+00  0.18642094E+00
  0.29896855E+00  0.60085581E+00  0.81120569E+00
  0.17639242E+00  0.93362335E-01  0.79108197E+00
  0.77318478E+00  0.88818050E+00  0.22003202E+00
  0.70834434E+00  0.76298258E+00  0.59854523E+00
  0.27797477E+00  0.21707739E+00  0.39820644E+00
  0.29729790E+00  0.26582321E+00  0.90803401E+00
  0.69528672E+00  0.71068453E+00  0.10638862E+00
  0.20232997E+00  0.72627344E+00  0.39613895E+00
  0.79827411E+00  0.28728245E+00  0.61117554E+00
  0.78474665E+00  0.22881370E+00  0.90380096E-01
  0.18390440E+00  0.76792384E+00  0.90259524E+00
  0.44577637E+00  0.86059805E+00  0.45921367E+00
  0.53942912E+00  0.14621813E+00  0.52797308E+00
  0.62025161E-01  0.15572688E+00  0.97074280E+00
  0.93546051E+00  0.85877520E+00  0.32345087E-01
  0.96108287E+00  0.64729286E+00  0.55877418E+00
  0.67113105E-01  0.36031652E+00  0.44201952E+00
  0.55124258E+00  0.34524766E+00  0.38030887E-01
  0.43963027E+00  0.63293684E+00  0.55358768E-02
  0.35115465E+00  0.27989900E-01  0.56141683E+00
  0.65285737E+00  0.94601208E+00  0.46662461E+00
  0.65099054E+00  0.53938324E+00  0.93505158E+00
  0.34897422E+00  0.45169340E+00  0.47606172E-01
  0.14638870E+00  0.98642001E+00  0.73881526E-01
  0.83563679E+00  0.28474943E-01  0.96657494E+00
  0.84542029E+00  0.48462800E+00  0.46188363E+00
  0.17807877E+00  0.52043597E+00  0.57325175E+00
  0.51390718E+00  0.92110122E+00  0.66915262E+00
  0.48358149E+00  0.65124568E-01  0.37130663E+00
  0.37734578E-01  0.56597061E+00  0.36554486E+00
  0.98883304E+00  0.45782362E+00  0.66028832E+00
  0.46346693E+00  0.43274666E+00  0.84674106E+00
  0.53493060E+00  0.55622500E+00  0.15871986E+00
  0.93907301E+00  0.89414323E-01  0.15931829E+00
  0.40796014E-01  0.93848797E+00  0.87522187E+00
  0.11972496E+00  0.11572809E-01  0.25676645E+00
  0.86471146E+00  0.99684233E+00  0.76915709E+00
  0.37636279E+00  0.57147936E-02  0.75551671E+00
  0.61891069E+00  0.15084096E-01  0.24515643E+00
  0.87524335E+00  0.49542542E+00  0.26790809E+00
  0.14536943E+00  0.48847120E+00  0.75142911E+00
  0.60838505E+00  0.50521048E+00  0.75722343E+00
  0.37475270E+00  0.52323543E+00  0.24987719E+00
  0.23900977E+00  0.12933361E+00  0.98507237E+00
  0.74517001E+00  0.89024020E+00  0.25594018E-01
  0.75462771E+00  0.36647972E+00  0.99213224E+00
  0.24706660E+00  0.61943865E+00  0.60106499E-03
  0.25253133E+00  0.86245424E+00  0.48726551E+00
  0.75324965E+00  0.10080971E+00  0.50308377E+00
  0.75359534E+00  0.60485272E+00  0.52424888E+00
  0.26717836E+00  0.39755236E+00  0.49005465E+00
  0.10101380E-01  0.25721982E+00  0.12416930E+00
  0.65983466E-02  0.76563988E+00  0.88290809E+00
  0.47675758E-02  0.74216857E+00  0.37172912E+00
  0.98630287E+00  0.24158001E+00  0.62392281E+00
  0.49677573E+00  0.23386740E+00  0.86968829E+00
  0.49058687E+00  0.76535765E+00  0.10673771E+00
  0.49862958E+00  0.74723947E+00  0.61425096E+00
  0.50472430E+00  0.23778731E+00  0.39106078E+00
  0.98424721E+00  0.70348651E-02  0.18322486E-01
  0.50183297E+00  0.99866990E+00  0.52277876E+00
  0.12363010E-01  0.50791057E+00  0.50910180E+00
  0.51639741E+00  0.48921214E+00  0.49697237E-02
  0.75306969E+00  0.25884853E+00  0.27382978E+00
  0.26489885E+00  0.75242933E+00  0.75237493E+00
  0.75535371E+00  0.73134516E+00  0.76172513E+00
  0.24769252E+00  0.24466136E+00  0.24458363E+00
  0.24064994E+00  0.24587472E+00  0.74529249E+00
  0.74576587E+00  0.74899556E+00  0.26229330E+00
  0.24838433E+00  0.73956204E+00  0.23876307E+00
  0.74983796E+00  0.23230285E+00  0.73894550E+00
  0.51300830E+00  0.50495674E+00  0.50944423E+00
  0.99287557E+00  0.51507467E+00  0.98970462E+00
  0.48916377E+00  0.81197621E-02  0.35977458E-02
  0.98508153E+00  0.98351962E+00  0.50733638E+00
  0.92280392E+00  0.94137961E+00  0.23084623E+00
  0.93733037E+00  0.36571255E+00  0.79695371E+00
  0.54366030E-01  0.31500264E+00  0.91433441E+00
  0.46091347E+00  0.18766271E+00  0.16058030E+00
  0.31850776E+00  0.83673774E+00  0.94702391E+00
  0.62660107E-01  0.39206894E+00  0.27625102E+00
  0.15268467E+00  0.17332744E+00  0.45676586E+00
  0.83388563E+00  0.79625552E+00  0.54453969E+00
  0.84631236E+00  0.17949983E+00  0.95302363E+00
  0.90911851E+00  0.10227292E+00  0.29169815E+00
  0.89971684E+00  0.55348032E+00  0.68047411E+00
  0.14388716E+00  0.82701875E+00  0.83165009E-01
  0.21744003E+00  0.62373522E+00  0.49031850E+00
  0.67728350E+00  0.73538755E-01  0.90750242E+00
  0.54150966E+00  0.33008149E+00  0.20343933E+00
  0.54265518E+00  0.66841589E+00  0.30589135E+00
  0.28705044E+00  0.58939852E-01  0.38734127E+00
  0.38625405E+00  0.16972872E-01  0.25941736E+00
  0.97693063E+00  0.76154472E+00  0.14128633E+00
  0.80039375E+00  0.95313326E+00  0.37690315E+00
  0.62727314E+00  0.97389020E+00  0.73480963E+00
  0.57557847E+00  0.82593568E+00  0.81849656E+00
  0.31540269E+00  0.56391991E+00  0.66975494E+00
  0.33460960E+00  0.44720003E+00  0.85549335E+00
  0.31154922E+00  0.18751521E+00  0.53821267E+00
  0.60101800E+00  0.18512226E+00  0.69302616E-01
  0.80382568E+00  0.10501896E+00  0.11295058E+00
  0.42424267E+00  0.39787465E+00  0.71698900E+00
  0.29849658E+00  0.92667888E+00  0.10514197E+00
  0.71992512E+00  0.89470674E+00  0.56422774E+00
  0.92594527E-01  0.97321015E+00  0.75642945E+00
  0.83172813E+00  0.52339395E+00  0.84964655E+00
  0.22017634E+00  0.43190988E+00  0.13402397E+00
  0.36495761E+00  0.67770570E+00  0.44468604E+00
  0.18557231E+00  0.63398096E-01  0.64774803E+00
  0.49943177E+00  0.23768096E+00  0.64056741E+00
  0.81045356E+00  0.44891718E+00  0.65316663E+00
  0.75326943E+00  0.38119882E+00  0.49777475E+00
  0.68660265E-01  0.60453435E+00  0.20964950E+00
  0.47456431E+00  0.83496277E+00  0.33053260E+00
  0.43881238E+00  0.69521210E+00  0.87957529E+00
  0.18236127E+00  0.93065342E+00  0.86186537E+00
  0.63287895E+00  0.80184198E+00  0.44305302E+00
  0.56320408E-01  0.15166641E+00  0.82143952E+00
  0.37871688E+00  0.32076761E+00  0.56749013E-01
  0.24170098E+00  0.37283825E+00  0.97929956E+00
  0.98856556E+00  0.24599881E+00  0.37311067E+00
  0.62092183E+00  0.50176612E+00  0.24929138E+00
  0.22376875E-01  0.75060368E+00  0.63049096E+00