LLZO_Ia3d_Al30_partial_27               
   1.00000000000000     
    12.9652004242000007    0.0000000000000000    0.0000000000000000
     0.0000000000000000   12.9650001526000000    0.0000000000000000
     0.0000000000000000    0.0000000000000000   12.9650001526000000
   O    La   Zr   Li   Al
    96    24    16    47     3
Direct
  0.0942671306505316  0.1949803785613986  0.2782650946680803
  0.9037732101673482  0.7931878188533714  0.7094304698179955
  0.4002463254881797  0.7940950454423870  0.7822945536469912
  0.6004426659658018  0.1856311869401472  0.2245199812952061
  0.9003945026336182  0.6842463282484391  0.2297300579457946
  0.1055618527263989  0.3077073690979619  0.7910264703463862
  0.5945277167740396  0.3058937190148721  0.7256322622039925
  0.3950093001087861  0.6931141493901037  0.2870761312299244
  0.2799874189455470  0.0940506587967896  0.2010744087018897
  0.7309700501711069  0.8889709454955717  0.8085674311384632
  0.7793857271640592  0.4061461484979078  0.8004072265881904
  0.2174032971383117  0.5970959460238642  0.1973493261530815
  0.2319930214842967  0.8953541833818618  0.6875380271779553
  0.7891868740847007  0.0998602301967081  0.3037251751621919
  0.7138381586284651  0.5898098041116294  0.3040829422366492
  0.2929655337439115  0.3925381025576481  0.6971439011190571
  0.1963931177795278  0.2844124795557358  0.1010882637268281
  0.7968082731664763  0.6973259135322089  0.9028654897163870
  0.8008801873939478  0.7761503941322212  0.4061845958479681
  0.1908491949141322  0.2246578773529112  0.6046515280398497
  0.7034798049145210  0.2218303322920890  0.8986450952097382
  0.3078855635573029  0.7863659044217503  0.1040380634662781
  0.3047219900639127  0.7140731948444254  0.5932594461190109
  0.6895118168336073  0.2727801894460602  0.4018849999615735
  0.9427559871748316  0.3541090062690182  0.9640230893107745
  0.0544019183623087  0.6486829296230276  0.0370563971363073
  0.5633156660395593  0.6457470094959620  0.4780083511561750
  0.4518786617082555  0.3419918468749431  0.5291218034979346
  0.4423303009786447  0.1460024691464172  0.0398795410297589
  0.5554139275807144  0.8493075935943878  0.9687776591942109
  0.0539611593078785  0.8457854309343397  0.5401931246897833
  0.9507538975711924  0.1533369784992192  0.4716089232730587
  0.8439861218078928  0.5321328163016698  0.0510767242873817
  0.1530810425522119  0.4737392701233030  0.9483158714346003
  0.1482603240509769  0.0302955085632953  0.4455910186304518
  0.8499290970734074  0.9675129655586318  0.5558935456717012
  0.6495437136416962  0.4610582432089867  0.5619382862076125
  0.3540505806477861  0.5246755856369437  0.4462911123764635
  0.3553561817221992  0.9612877037111951  0.9484566266010152
  0.6562690593074398  0.0233623800877756  0.0578332234566049
  0.0275986039839862  0.4483234575685329  0.1506428105629660
  0.9708838319852544  0.5532291519770903  0.8461944937041027
  0.5415882358217299  0.0562482813909090  0.8569368775814155
  0.4712985111452581  0.9447599921905905  0.1578271092807770
  0.9625348405413248  0.9444073674976866  0.3597160085260453
  0.0255443763370927  0.0589315752855569  0.6576746603388743
  0.4628956819599492  0.5502287179468925  0.6461447917894255
  0.5369808540482339  0.4467385490646530  0.3449066726847987
  0.5985741393729446  0.6867408422219844  0.7745116262518926
  0.3972149330332109  0.3000847638268366  0.2160023594256105
  0.8975385186658330  0.3047211401952972  0.2854384566304288
  0.0990648795394667  0.6951743285066101  0.7084292900867585
  0.4010283829612899  0.1913306325347349  0.7246068961023256
  0.6038544324759543  0.8018039898799981  0.2872315358301699
  0.0951363580463439  0.8025874854260808  0.2277894617110736
  0.9003275411349824  0.2015193055365874  0.7881387772749526
  0.7829112177879021  0.5933972114823937  0.6937022217100841
  0.2179545273458192  0.3989224925179329  0.3043745492892223
  0.2800705846055189  0.9009982472468431  0.3049802174818747
  0.7250167610450620  0.1026833422873396  0.6906962873777213
  0.7108801944100641  0.4033403935916129  0.2014040666628819
  0.2861200275322647  0.5978749665245137  0.8033270051502482
  0.2200908389066225  0.0958578817139727  0.8095291519888755
  0.7783037619964884  0.8917594550695616  0.1971507644024593
  0.6966403743675184  0.7811916871801881  0.6013721857250058
  0.3012425748919469  0.2100151098574126  0.4009625286381331
  0.3057407146633470  0.2808908770452450  0.9074231528639960
  0.6990663961144347  0.7114753534776921  0.0980004102848097
  0.1950994436748711  0.7113741507320072  0.4007112186630417
  0.8071196888410854  0.2875127070587640  0.5995053975173990
  0.8098578829260404  0.2297454755930368  0.1022665394807030
  0.1911355600482934  0.7711191246987404  0.8958307232106779
  0.4488537143984527  0.8486567539033849  0.4655898911954658
  0.5566492997217167  0.1470215465714978  0.5382170817606702
  0.0547824727980923  0.1496091624242614  0.9675998578554968
  0.9389330604837043  0.8496282085116010  0.0220168151586089
  0.9576328093308649  0.6526057330245525  0.5476676822843493
  0.0554289726419946  0.3479543901823063  0.4675247520276625
  0.5572087054398557  0.3528396461724394  0.0236203547411022
  0.4496252891256911  0.6557202639752637  0.9757595575075534
  0.3565312232509074  0.0341016397906850  0.5553317764064228
  0.6574537481266006  0.9686377587455093  0.4500458489393305
  0.6540799572953228  0.5425417428091640  0.9520793319648116
  0.3536248594783637  0.4718021544560234  0.0572403511090751
  0.1474875911366428  0.9727969745624037  0.0634816497706277
  0.8446397099067908  0.0355286769765745  0.9494052559132565
  0.8558616829148170  0.4673754947119336  0.4553778893079215
  0.1587867037829487  0.5208429657022384  0.5615583912885684
  0.5371091722248539  0.9450440047726666  0.6553529613528158
  0.4701793194177721  0.0500315644889443  0.3509126319125894
  0.0314660636893397  0.5496729701109032  0.3548004168265599
  0.9730716875205397  0.4442575490438101  0.6570007918959682
  0.4651177762233643  0.4552082959797810  0.8564859173306502
  0.5375688550863731  0.5513846338927997  0.1600609144152113
  0.9628023711166939  0.0597946733163312  0.1500281768923528
  0.0279355336337932  0.9523071537319777  0.8509909998356715
  0.1153559600097420  0.9963777648766545  0.2504942043976422
  0.8733977482606934  0.0014674490512007  0.7539510863051870
  0.3689030580684574 -0.0019461245397746  0.7543460414608077
  0.6320240703903599 -0.0012547137203682  0.2511557602265896
  0.8757238144166569  0.4958649847306541  0.2560465340499947
  0.1359253172114313  0.4932827651100599  0.7536041580382129
  0.6182896021297941  0.4955961832992714  0.7488076655697382
  0.3743161549177245  0.4967087716296253  0.2519762603231936
  0.2507074166438341  0.1151853599480031  1.0024699934670025
  0.7537300972439739  0.8744437835160678  0.0031158739778726
  0.7443887545247790  0.3680843086465996  0.0043302124572424
  0.2475175142983243  0.6302866653372334  0.0058559817637680
  0.2540617881429236  0.8806499201242838  0.5019807592037868
  0.7517911866392051  0.1286949869790316  0.5029380976682574
  0.7459271752330958  0.6139047491133186  0.5016797939613885
  0.2547660842128530  0.3665038665585880  0.5013261286569370
  0.9975983338467168  0.2495353377062840  0.1236022810990644
  0.0077250078413262  0.7536556126586199  0.8860811882280912
  0.9992716424268955  0.7507298597784777  0.3712409689728270
  0.0040627671441115  0.2470549317294842  0.6353638838675395
  0.5020319424847723  0.2441935629332615  0.8826884657595532
  0.4979295150241665  0.7508389692923586  0.1362645477469291
  0.4988693810392417  0.7490817740805051  0.6238849171153913
  0.5013131757815064  0.2450197990889382  0.3687344568012941
 -0.0004635538661322  0.9981162689476644  0.0047832812255118
  0.5046192402303598  0.9979916592321134  0.5013649923927014
  0.0086196156693546  0.4957323065532603  0.5051820674830533
  0.5020868232955572  0.5012173239635183  0.0055150097911826
  0.7459842232682488  0.2472802744847579  0.2531941190879719
  0.2522923291598355  0.7497480957430444  0.7482746407338783
  0.7448133489934072  0.7419841298393606  0.7490042263748762
  0.2474304549760634  0.2448845186743119  0.2516696586391419
  0.2507877911034174  0.2444047470678037  0.7537024950908658
  0.7537894548386465  0.7466505768804730  0.2513543425416584
  0.2452236064131461  0.7516504001271956  0.2493360022047074
  0.7484721239841009  0.2523147437877328  0.7479134963553433
  0.5045466219833649  0.4968411743438063  0.4998275275737903
  0.0012663530523188  0.5014193151404716  0.9979527182626340
  0.5041644522816023 -0.0004222915927653  0.0060854861458565
  0.0018322819159853  0.0039935953398350  0.5082539194052851
  0.8275727509160349  0.8264221964484217  0.5550746091699178
  0.9245787347592507  0.4010683927771629  0.8142749121377456
  0.8502461808274007  0.1785099422668819  0.9290475039349428
  0.4261621449228657  0.0975065621181943  0.1876692896133113
  0.4279771153844844  0.6472996326965221  0.8303192975114513
  0.1743287411688498  0.4318362177060210  0.1459445073207190
  0.4165147055626511  0.1768183796841291  0.5814116296405860
  0.6830691792967010  0.9311585698354889  0.6160598076073508
  0.7947503387540727  0.0887110742189604  0.0842616241464005
  0.0900393820460234  0.1958592563441209  0.4219120426820753
  0.9285609030153534  0.5821967126416685  0.6964224462975518
  0.9898271962004369  0.7599308447664433  0.1266611247840246
  0.1752170102066099  0.5585126181777273  0.3474123386334460
  0.5179233896066249  0.2540085604176432  0.1252513044010540
  0.3207414701577391  0.4264632460704781  0.9106820095471208
  0.5077883793228357  0.7305679318042193  0.3731563803286919
  0.3222546626694817  0.0630170847859735  0.3498294801508287
  0.3240305938604845  0.9355573475436963  0.1568559826542579
  0.9333013505603162  0.1512828954197656  0.3232425547672441
  0.0722767779746365  0.3809827831344045  0.3193947011149360
  0.5898254663984724  0.9222685549238691  0.8050538945049531
  0.5742623916616489  0.7145881353531985  0.9140194361202535
  0.1762415625498365  0.6609417595611827  0.5383673388408534
  0.3199759264836997  0.5688566490563741  0.5938829323358737
  0.5884020376044992  0.2952188926549203  0.5799535140485494
  0.3425419175619257  0.3241146392183754  0.0698500774260109
  0.8166678623271041  0.9272906045170115  0.4069413727264176
  0.4367897751382558  0.3353640411163097  0.6758184214348310
  0.4111571091885967  0.8190403617585591  0.9253288473398426
  0.6862137485018013  0.0819184905695644  0.9171206791343341
  0.1240083293930389  0.9738458026612928  0.7342027789419892
  0.8246027896120683  0.5515404125449356  0.8353785289995979
  0.0717426167474329  0.5968300932713476  0.1845407872582836
  0.3377100731206036  0.6687936120284839  0.4313168255072676
  0.2416289763454296  0.1195221664887223  0.5181854932831773
  0.5801450159232581  0.0947794404657791  0.6953423763245834
  0.8251837265019970  0.4316255565593598  0.6457529750816702
  0.7425671628365692  0.3751300320441682  0.4876687409350144
  0.8783170256830813  0.9862678433094344  0.2413286682913734
  0.4266627100205145  0.9023359545973281  0.3183293600221297
  0.3766508686062541  0.4960564299692146  0.7495009193948942
  0.2323724067046329  0.8739394532289684  0.9943426133679428
  0.6548982399291857  0.8241118978737988  0.4379022215280430
  0.0769733058950841  0.0998843210466940  0.8299585032359869
  0.1695302943498293  0.3295717630344011  0.9553281630526420
  0.0058193328693513  0.2553611090585109  0.8806271623586542
  0.9133709289591098  0.3106387206862285  0.4290239073562824
  0.6250819602526765  0.4978641924669068  0.2524163305819088
  1.0065609756324214  0.7539191821171589  0.6282793669359061
  0.7509262167757861  0.6219442466975370  0.0095772113655161
