LLZO_Ia3d_partial_17                    
   1.00000000000000     
    12.9652004242000007    0.0000000000000000    0.0000000000000000
     0.0000000000000000   12.9650001526000000    0.0000000000000000
     0.0000000000000000    0.0000000000000000   12.9650001526000000
   O    La   Zr   Li   Al
    96    24    16    50     2
Direct
  0.1101207830616482  0.1889351214603591  0.2984464768040405
  0.9077747956446538  0.8254508482599624  0.7343597960214951
  0.4001261385944800  0.7815410692890105  0.7533319623138278
  0.5833135973375014  0.1895506438866361  0.1869955003689853
  0.8878086734040125  0.6791111997511489  0.2057600119717821
  0.1028512584039138  0.3081348765660974  0.7674846129731139
  0.5761610758662403  0.3046571881315169  0.7253854390892267
  0.3894536030861129  0.7117713885685478  0.2736170308203830
  0.2700796354409850  0.0952128171032939  0.2044093472349386
  0.7003956224245098  0.8932479682625925  0.8186371813721157
  0.7811365680848203  0.4220619530778911  0.8171136538420396
  0.2024392251250665  0.6058615180646424  0.1931075240852759
  0.2094710572232389  0.8964663516620869  0.7003155603204684
  0.7340707566356279  0.1016624273959284  0.3084167523979931
  0.7256900547603892  0.5831420884138354  0.3108717517960229
  0.2968946275590455  0.3960963734356088  0.7044822247424513
  0.2105669677595832  0.2570462887086410  0.1029986035563079
  0.8326292510014729  0.7141520466692292  0.8978694632532875
  0.7781633046667553  0.7964549562676035  0.4022157943820487
  0.2089110689368381  0.2155004617867129  0.6001476857934803
  0.7069551177026286  0.1969094860037401  0.9164873031679330
  0.2949763402947915  0.7761629710665291  0.0740663348602141
  0.2864135158162005  0.7074376254534435  0.5868272940756777
  0.6926377860790515  0.2880667894254366  0.3731231232932986
  0.9597551273235706  0.3680000384130939  0.9319317316883048
  0.0754595027718828  0.6294047981722271  0.0411433178364671
  0.5695784896817638  0.6654810486179078  0.4634440611136540
  0.4498917700506357  0.3512133959532514  0.5265889466558387
  0.4436454573693189  0.1490497978608334  0.0203309320728803
  0.5225750241363564  0.8408482478913574  0.9728248305510322
  0.0275358262061008  0.8572834397782947  0.5383169435331292
  0.9148132640674709  0.1590294705292452  0.4990684468782093
  0.8433991759168429  0.5101813379944969  0.0506640951000595
  0.1615081976855010  0.4715181924565029  0.9467797870512777
  0.1551892786979714  0.0294430397252642  0.4780199762609240
  0.8368555129447590  0.9698530681425388  0.5839363020204003
  0.6544213553050585  0.4648904985948284  0.5487832302086777
  0.3343841007118270  0.5345053027223837  0.4478276223714443
  0.3493542238326627  0.9772967853403067  0.9327653526665641
  0.6604266457957937  0.0280253729955540  0.0584671120376836
  0.0301714556624482  0.4269885772264533  0.1424997378898154
  0.9647474659109413  0.5652963379051508  0.8533680052233310
  0.5284589598832550  0.0537423169302163  0.8430325474204445
  0.4716475987401181  0.9496507559465645  0.1419971381835657
  0.9588135147059476  0.9798884913889020  0.3418456189701101
  0.0208603134140565  0.0518448824840235  0.6655018949919974
  0.4717919796553994  0.5615055522453835  0.6462865507611847
  0.5368736294827066  0.4468560819019658  0.3492254696982838
  0.5920705829920556  0.6816430179276058  0.7925474330057820
  0.4150825079112473  0.3135896752391866  0.2315520265777480
  0.8921168560692569  0.2715277923998255  0.2762479001234187
  0.1108449410031943  0.6660544512824234  0.7175937774156762
  0.4018930282359329  0.1975759115464359  0.7243016511228390
  0.5907817256200499  0.7821520019558450  0.2726132972075787
  0.0965030062144732  0.8251971784624265  0.2325374088270814
  0.8899993964563759  0.2075706531135691  0.7849737264132938
  0.7992762624185090  0.6129106664208764  0.6939794750378089
  0.2120428667822958  0.3935317941975299  0.3350463724683154
  0.2822897615393356  0.8869964957576335  0.3030221444645522
  0.7140604243128833  0.0883833212420259  0.7146252444191959
  0.7289424018419690  0.3848548642618319  0.1707336296553245
  0.2918906182366022  0.6041817827529746  0.8076204110649089
  0.2058753145419828  0.1002153351318725  0.8038493518046625
  0.7782010913757632  0.8982324578769987  0.2121240417407946
  0.6909562792113676  0.7935686649179334  0.6297171379359419
  0.3188933935875443  0.1993240153585999  0.4055170048678174
  0.2809032421408389  0.3101001456790718  0.8941750998613344
  0.7136042753448789  0.7140994593479731  0.0767015709555788
  0.1718420196751341  0.7271935045051654  0.4042262704983852
  0.7819403397135090  0.2804888005918111  0.6178242710472096
  0.8307693167563222  0.2136353212269341  0.1067949698195386
  0.1859879705222789  0.7624512675853528  0.8805158040302108
  0.4384183333538643  0.8582600478105312  0.4696657516217200
  0.5791941397527542  0.1373215173439392  0.5293907705001102
  0.0688522051336167  0.1518416436769143  0.9543548645745027
  0.9768985407934150  0.8480106239304993  0.0105197371448001
  0.9335207127431610  0.6510069367348632  0.5169094756131248
  0.0304066925962008  0.3302577644510792  0.4840889718547254
  0.5380501272288950  0.3474903427927281  0.0327406175733072
  0.4675145707022280  0.6382611495192589  0.9707796452279629
  0.3427366175302189  0.0303430541954169  0.5417032595198571
  0.6569957191385996  0.9653159816722198  0.4352815132880110
  0.6637939628738294  0.5194433204945783  0.9702106392853572
  0.3664868620848900  0.4582092814089445  0.0620377544787235
  0.1674761151986713  0.9766126356630679  0.0513402233908561
  0.8627415614868832  0.0218589195635563  0.9726201982051418
  0.8585777355829531  0.4475902141604741  0.4453870908991125
  0.1541300099621438  0.4821221987085643  0.5728770112993682
  0.5255029933259598  0.9615160557237581  0.6661847811240573
  0.4747895203967776  0.0544055168694273  0.3528623317986258
  0.0405315693814710  0.5272927188599335  0.3524856936880001
  0.9352872246087228  0.4674731395681763  0.6480045317112099
  0.4913032878418347  0.4577223684087994  0.8388165271027345
  0.5250603081703079  0.5733361693428286  0.1717803657740397
  0.9889416606856497  0.0479675227100024  0.1522373865811432
  0.0388766559709200  0.9611221213666477  0.8489424202211799
  0.1199251639902986  1.0028735842761209  0.2522965774329299
  0.8792399557770562  0.0148989594747391  0.7467771847346285
  0.3775814869434616 -0.0025206777235073  0.7526531515072334
  0.6048471921751768  0.0060525393955808  0.2362798534021467
  0.8696689062539160  0.4851457415778304  0.2554031014651527
  0.1201436354980182  0.4882481172468406  0.7536569010682547
  0.6423099701168802  0.5287354609575741  0.7589365008156502
  0.3701094382863492  0.5064847828431114  0.2516083731093434
  0.2461698789470589  0.1355956463156021 -0.0163583923203960
  0.7754736583341658  0.8666160492009923  0.0123289871525730
  0.7499351243258774  0.3626009963219335 -0.0090335980801974
  0.2680456532827446  0.6109500830195148  0.9872118183647888
  0.2452708919221722  0.8718437314161500  0.4962018609547996
  0.7395518212098567  0.1330587594084517  0.4823947837001785
  0.7408124841781264  0.6306261226502535  0.5091944239872574
  0.2559306749074400  0.3806362129095739  0.5142446306674645
  0.9954093579909639  0.2353652527577085  0.1387314259932333
  1.0071647309908767  0.7526255659565066  0.8705377862391765
 -0.0096546682909049  0.7584156809985604  0.3944350095918637
  0.9574149566316941  0.2494065377730638  0.6367759193531670
  0.4794963791715883  0.2720785501740717  0.8719758448282148
  0.5035607789811327  0.7522724304281611  0.1104723847840539
  0.4899636992220160  0.7537685347564532  0.6166698480688321
  0.5000299360509063  0.2553168169085067  0.3952088811936960
  0.0190561973018596  1.0059565701504822  0.0078682830899231
  0.5003691925898230  0.0028689001792042  0.4859662051325984
  0.9882368226160042  0.4900071556340164  0.4964411110460761
  0.5161853920597769  0.4950545750992980  0.0217577327143522
  0.7295237567105227  0.2441538977750909  0.2139373424257131
  0.2420514581273353  0.7253144301867820  0.7320076807962868
  0.7644741694624503  0.7450774142225054  0.7613592766478369
  0.2526727840138810  0.2421461838137207  0.2506858601353149
  0.2369237618234564  0.2433511000878620  0.7476975053132092
  0.7437862887459696  0.7452301678421135  0.2463201461443460
  0.2415381876218852  0.7606355982235763  0.2241564827859385
  0.7293087827147252  0.2423906868938808  0.7710564668163591
  0.5046343552250619  0.5025728132714601  0.5059217583142577
  0.0125516480711904  0.4971203751429028  0.0073713861174286
  0.4897270467882807  0.9953652140428600  0.9814645137220066
  0.9850694657357550  0.0012600469757131  0.5151671726686194
  0.3394724784670582  1.0679462333567551  0.3462642509113772
  0.1171611706977945  0.6374077478769774  0.5809668944350355
  1.3113800196268521  0.8412123926983242 -0.0304836366838541
  0.6603254321473608  0.4316651464887895  0.3208697931304778
  0.7158472564377173  0.8972930463862666  0.5486920877311541
  0.3324017459274991  0.5463372419727243  0.6478999880207933
  0.6013994744242624  0.8041891305227770  0.4278578394775209
  0.7217656039123135  0.5538544124856739  1.1045210050143770
  0.6439820979318943  0.3446124530292923  0.5815115385297791
  0.1644704953543067  1.0257826655342446  0.6516434454897494
  0.8996048003861918  0.3002893115654729  0.4111187933900169
  0.0734254529928997 -0.1212066763979989  0.7358048158373719
  0.7922474603039884  0.9337810896199896  0.3612057309991613
  0.5075897761497074  0.1874891081436480  0.6399181830309545
  0.7838338295812304  0.4154900661453351  0.5657616888239196
  0.8219957118152413  0.5512232530369594  0.8818707793013510
  0.3391816539904274  0.4520767141740055  0.8195971491826461
  0.4400394031951581  0.1629910696052951  0.1622248939328275
  0.9741472684779534 -0.1897045859272206  0.1679115680134748
  0.4327274721132356  0.8501215985243609  0.2670517506484886
  0.2985479763444144  0.6687237788669186  0.4551864646220150
  0.0944498052840699  0.3689127708602533  0.3393198174877359
  0.1431099995313699  0.4919009580574213  0.1751028362127909
  0.5768790482912260  0.6067409482736277  0.3152341906086843
  0.5612059774030226  0.3565537712855186  0.2060090132775564
  0.4424218104269779  0.3794387513143127  0.6630524191612903
  0.1854086714322578  0.9495281611722827 -0.1507647718538736
  1.1484271966675599  0.8331850488748529  0.0158732871201951
  0.9216491743619076  0.7933675104339510  0.6066119677120697
  0.7443480407012442  0.0724125451101935  0.9181533722451516
  0.6137403815063474  0.1662355009050736  1.0593434111916149
  1.0718949567851315  0.0919283648267129  0.8209175076343043
  0.4034899832861245  1.3311894623678244  1.0836913037434521
  0.4430956266093516  0.7472442924186675  0.3786153706076003
  0.8219401261620677  0.0672832583269261  0.0872383739416435
  0.5200450669811103  0.7511338788479807  0.8702016236913611
  0.6205214863561358  0.6375580851651039  0.9528336538539278
  0.2541680173161798  0.3794389072672977  0.0100696771028277
  0.8895145291947991  0.1171460272130496  0.2836889816421941
 -0.1013445133130629  0.1831722943456346  0.9305420359001751
  0.9181263470032195  0.4305254474852335  0.7971948169969911
  0.4475148678434733  0.6230771814961521  0.8039920635230102
  0.1445799002119699  0.5993351799208475  0.3454099922530862
  0.1014735931712508  0.3274486443933660 -0.0770816364760557
  0.9524034167341902  0.5993017462946139  0.7073463038600957
  0.3180650552126812  0.9695466840392339  0.1733437902609375
  0.0267855672541585  0.6508860544761520  0.1754806634158124
  0.0566640765500160  0.2142568619414493  0.4160955061575518
  0.8418296980125932  0.6527196655222991  1.0602532827349205
  0.9955733588567532  0.2511067481405997  0.8502307455506836
  0.6206087859789534  0.9943505236283087  0.7646818465353094
  0.2500656659309408  0.1300830456426994  0.4909371384715975
 
 -0.10780703E-01  0.64212633E-02  0.15302682E-01
 -0.24479156E-02 -0.53719769E-02 -0.74463845E-02
  0.24859193E-04  0.63177458E-02 -0.66217649E-02
  0.76313815E-02  0.83152315E-02  0.15844654E-01
  0.98910237E-02  0.95217087E-03 -0.13199866E-02
 -0.14791190E-03 -0.16859432E-02 -0.83371111E-02
  0.42315570E-03  0.27024946E-02  0.11574827E-01
  0.19984836E-01 -0.22296483E-01  0.44200435E-02
  0.13082907E-01 -0.86368651E-02  0.30298648E-02
  0.17227550E-02 -0.16072616E-01  0.16578683E-01
  0.88023409E-02  0.76978547E-02 -0.50335101E-03
  0.16765564E-01  0.57687334E-02 -0.60649584E-02
  0.74024835E-02 -0.21463962E-01  0.47683519E-02
  0.11055603E-01 -0.18388967E-01 -0.14105061E-01
 -0.12653258E-01  0.55706609E-02  0.92391449E-02
  0.11914706E-02  0.23967220E-02  0.73667610E-04
  0.99444981E-03  0.12727270E-02 -0.33627472E-02
  0.78556056E-02 -0.95221454E-02  0.35423477E-02
  0.73551504E-02 -0.26969481E-02  0.11745603E-01
  0.15739773E-01 -0.43007598E-02 -0.43477854E-02
 -0.78968303E-02 -0.15851122E-01 -0.70705659E-02
 -0.60682292E-02 -0.44941031E-02 -0.92827185E-03
  0.51059144E-02  0.11281828E-01 -0.53309282E-02
 -0.67974025E-03  0.12585448E-01  0.51117607E-02
 -0.17470652E-01 -0.13068152E-01  0.77510367E-02
 -0.49151154E-02 -0.57169104E-02  0.70408766E-02
 -0.55937865E-02  0.62296690E-02 -0.14255849E-02
 -0.15917954E-01 -0.79339060E-02  0.17443408E-02
  0.14856342E-02 -0.31888617E-02  0.84479906E-02
  0.52925955E-02 -0.67654893E-03  0.14760760E-02
  0.19941272E-03 -0.56174468E-02 -0.99679643E-02
  0.94169795E-02  0.36594238E-02  0.13177033E-01
 -0.16314719E-01  0.15870662E-01 -0.95668806E-02
  0.16948117E-01  0.15572892E-01  0.13286019E-01
 -0.16862341E-02  0.58692187E-02 -0.20179496E-02
  0.13084371E-02 -0.17852408E-01 -0.21379624E-01
 -0.94240218E-02  0.98056219E-02 -0.15652245E-02
  0.75008264E-02  0.10270902E-01  0.72135458E-02
 -0.65449700E-02 -0.24401503E-02 -0.52467074E-02
  0.22141678E-02 -0.69949038E-02 -0.31131421E-02
 -0.35171344E-03 -0.83972658E-02  0.16215441E-01
  0.39751242E-02 -0.18998708E-02  0.17913463E-02
  0.86187939E-03 -0.22141240E-01  0.13878811E-01
 -0.77691918E-02  0.25263468E-02 -0.93965887E-03
 -0.49798922E-02 -0.41312134E-02  0.11551738E-01
  0.11808124E-01 -0.73513537E-02 -0.97743151E-03
 -0.41536972E-03  0.86799390E-02  0.19852169E-02
 -0.76684654E-02  0.80384383E-03 -0.23634705E-02
  0.89621574E-02  0.19301907E-01  0.91258682E-02
 -0.27273164E-02 -0.12301927E-01  0.12975170E-02
  0.68473558E-02  0.78845110E-02  0.99182939E-02
  0.14599380E-01  0.17756301E-02 -0.28195364E-03
 -0.10695992E-01 -0.37190730E-03  0.11905794E-01
 -0.58584066E-02 -0.33511974E-02 -0.82877084E-02
 -0.10327985E-01  0.24434787E-02  0.63926886E-02
 -0.78553979E-03  0.13078117E-01 -0.11399312E-01
 -0.84501296E-03 -0.39800348E-02 -0.10098347E-01
 -0.12690511E-01  0.36776317E-02  0.81825719E-02
  0.24151545E-02  0.15192351E-02  0.16732345E-02
 -0.43918886E-02  0.40030489E-02  0.10521490E-01
 -0.11145837E-02 -0.83604222E-02  0.79961162E-02
 -0.84708582E-03  0.10450746E-01 -0.16435756E-01
 -0.24984023E-02  0.28609042E-02  0.97023359E-02
 -0.37284433E-02 -0.26780415E-02 -0.17347156E-01
 -0.14205804E-02 -0.12075741E-01  0.13629712E-01
  0.53905220E-02  0.58665395E-02 -0.12794835E-01
 -0.91962869E-02 -0.86663048E-02  0.15920760E-01
  0.33020453E-03 -0.23818486E-02  0.22199561E-02
 -0.29438143E-02  0.10022068E-01 -0.24046400E-02
  0.70321968E-02  0.34588977E-02  0.49305763E-02
 -0.44075251E-02 -0.10793401E-01 -0.73349674E-02
  0.14432886E-02  0.13135077E-01  0.14241608E-01
 -0.65635448E-02 -0.11349974E-01  0.50249612E-02
 -0.75042069E-02 -0.16814780E-02 -0.92064525E-02
 -0.10030088E-01  0.12359845E-01 -0.47008535E-02
 -0.80824507E-02 -0.89849732E-02  0.73898347E-02
 -0.12210718E-02 -0.16051271E-02 -0.30773834E-02
 -0.15675107E-01  0.48259979E-03  0.48470977E-02
 -0.51490633E-02 -0.70191169E-02 -0.46019661E-02
 -0.58396731E-02 -0.88100189E-02 -0.15042676E-01
  0.95194876E-02 -0.11207735E-01 -0.52158615E-02
  0.14476557E-01 -0.22216739E-02 -0.84563816E-03
 -0.66881728E-02 -0.90078511E-02 -0.22926923E-02
  0.41889256E-02 -0.66875868E-02 -0.24029911E-02
  0.16074385E-02 -0.35143073E-02  0.38260403E-02
 -0.13144641E-02 -0.65716068E-02 -0.28277365E-03
 -0.10363535E-01  0.14848737E-02 -0.14476517E-01
 -0.16309537E-01  0.11653738E-01  0.11759765E-01
 -0.13557093E-01  0.13663005E-01 -0.10365132E-01
  0.15897020E-05  0.17594972E-02  0.33733965E-03
 -0.85840388E-02  0.80183728E-02  0.49275003E-02
  0.46479176E-02  0.27716857E-03  0.12309759E-01
 -0.98861332E-02  0.47585838E-03 -0.74343601E-02
  0.15919894E-01  0.79753635E-02 -0.14658847E-02
 -0.84907287E-02 -0.54491969E-02  0.77284134E-02
  0.14619233E-01 -0.22896220E-02  0.13156993E-02
  0.24878934E-02 -0.11179170E-02  0.68184768E-02
  0.17173970E-02 -0.54594296E-03  0.90049466E-03
 -0.96649367E-03  0.16412766E-02 -0.35212618E-02
 -0.75857147E-03  0.19528562E-02  0.98518566E-04
  0.52797606E-02  0.16096531E-02  0.11530044E-02
 -0.78747155E-03 -0.70694954E-02  0.14616973E-02
 -0.23780729E-02  0.41318760E-02  0.32442332E-02
  0.20996553E-02 -0.53644583E-03 -0.23273589E-02
 -0.14327689E-02  0.63768462E-04 -0.65149154E-02
 -0.39206241E-03 -0.29407379E-02 -0.52274951E-03
 -0.35525042E-03  0.85300419E-03 -0.17859139E-02
 -0.70513332E-02  0.15551515E-02 -0.89375948E-03
 -0.99262874E-03 -0.64697468E-02 -0.22543086E-03
  0.11404746E-02  0.27560402E-03 -0.95046151E-02
 -0.18975757E-03 -0.50853406E-03 -0.32303227E-02
 -0.13112677E-04 -0.16550603E-02  0.15248749E-03
 -0.87077213E-03 -0.46083255E-02  0.55754464E-02
  0.35272818E-02  0.24833653E-02  0.39123698E-02
 -0.14104256E-02 -0.13041263E-02 -0.36052708E-02
 -0.16637586E-02 -0.21576559E-02  0.47504847E-02
  0.45632786E-02  0.34170330E-02  0.38599149E-02
 -0.16753184E-02  0.16449326E-02  0.58048878E-03
 -0.82317723E-03  0.43014588E-02 -0.18896846E-02
  0.45138143E-02  0.98368620E-03  0.37236101E-02
  0.26360191E-02  0.14636245E-02 -0.35853024E-02
 -0.34941841E-02  0.74667651E-03 -0.38695298E-03
 -0.18417017E-02 -0.39312099E-02 -0.14300030E-02
  0.21626546E-02 -0.29112262E-02 -0.30919418E-02
  0.83132465E-03 -0.46152255E-03 -0.27998751E-02
 -0.24317693E-02  0.91983115E-02  0.43811873E-02
 -0.25243413E-02  0.56686354E-04  0.26183445E-02
  0.10802101E-02 -0.36273415E-02 -0.44113769E-04
 -0.25410552E-02 -0.21848073E-02 -0.47055992E-02
 -0.13623655E-02 -0.12321000E-02  0.22702445E-03
  0.17610036E-02 -0.67378400E-03 -0.32262116E-02
 -0.46750269E-02  0.89096815E-02  0.21502113E-02
  0.68290045E-03 -0.97654238E-03 -0.35445642E-02
  0.13958194E-02  0.57783173E-02 -0.33787353E-02
  0.26231716E-03 -0.17779800E-02  0.21773247E-02
  0.42584408E-02  0.15916999E-02 -0.83943774E-02
 -0.72578348E-02 -0.29045223E-01 -0.29622165E-01
 -0.16072463E-01 -0.10057391E-01 -0.48674365E-02
  0.11888801E-01  0.38331111E-02 -0.14627986E-01
  0.16298567E-01  0.20389929E-01  0.52381905E-02
  0.41179892E-01 -0.21616546E-02 -0.96610218E-02
  0.58313742E-02  0.39762342E-02 -0.11413475E-01
  0.15100255E-01 -0.35239104E-02 -0.48487402E-02
 -0.15577602E-01  0.58145251E-02  0.87804212E-02
 -0.43794638E-02 -0.74841944E-02  0.21884093E-01
  0.12342161E-01 -0.17142861E-01  0.10788570E-01
 -0.23611279E-02  0.32024605E-01  0.12190968E-02
  0.56332359E-02 -0.91867811E-02 -0.10758753E-01
  0.67073310E-02  0.14942153E-01 -0.16917167E-01
  0.96409607E-02 -0.28247132E-02 -0.22353339E-02
 -0.81429242E-02  0.60118249E-02  0.14366802E-01
  0.12103709E-01 -0.22691060E-01 -0.19041988E-01
  0.14674515E-01  0.18806105E-01 -0.65858184E-02
  0.11143269E-01  0.11550558E-02  0.34891876E-01
 -0.18951380E-02  0.17302062E-01 -0.49130862E-02
 -0.55212316E-02 -0.38260515E-02  0.16505951E-01
  0.16540818E-01  0.94147891E-02 -0.19465924E-01
 -0.19297397E-01 -0.15801479E-01  0.23344415E-01
 -0.18145440E-01 -0.23855719E-01 -0.87563923E-03
  0.29880566E-01  0.41278191E-01  0.26567406E-02
  0.11663947E-01 -0.34945778E-02 -0.10938726E-01
 -0.22419268E-01 -0.27624539E-02  0.78003379E-02
 -0.15945078E-01 -0.26085995E-01 -0.10645863E-02
 -0.25553110E-01  0.10627094E-01  0.63846049E-03
 -0.13933382E-01  0.17946520E-01  0.31540563E-02
 -0.16834341E-02 -0.10667000E-01 -0.11429861E-01
  0.52751454E-04 -0.93186804E-02  0.80349985E-03
  0.29827277E-01  0.82013620E-02  0.31158265E-01
  0.22814401E-01 -0.22863101E-01  0.42639350E-02
 -0.85085214E-02  0.82295596E-02  0.57854846E-03
  0.23206344E-01  0.33115310E-02 -0.13210822E-02
 -0.48474975E-02  0.39354707E-01 -0.37210547E-02
 -0.56435429E-02  0.15779983E-01 -0.50716835E-02
  0.89226131E-02  0.33357420E-02  0.54031657E-02
 -0.16007483E-01  0.76096623E-02  0.13369290E-01
  0.15338925E-01  0.70313188E-02  0.18306568E-02
  0.17288523E-01 -0.25967604E-01  0.60169631E-04
 -0.40085773E-02 -0.21959306E-03 -0.34008310E-02
 -0.47526572E-02  0.19781404E-01  0.48241186E-02
 -0.14759335E-01  0.94137224E-02  0.36464076E-02
 -0.31638585E-02 -0.23384769E-01 -0.27744082E-03
 -0.28986842E-02  0.94607557E-02 -0.26990387E-01
 -0.48015506E-02 -0.10593818E-01  0.55014009E-02
  0.12103004E-01  0.68948016E-02 -0.11622093E-01
  0.38315993E-02  0.61645385E-02 -0.89487253E-02
 -0.17748062E-01 -0.28687064E-02 -0.16504804E-01
  0.15845856E-02  0.86638624E-02 -0.32695299E-02
 -0.55872461E-02  0.10292765E-01  0.18155489E-01
 
           1
   2.00000000000000     
 -0.57789775E+00  0.85090390E-02  0.76992471E-02 -0.58600190E+00
  0.10845776E+00  0.18992567E+00  0.30080709E+00
  0.90739718E+00  0.82462216E+00  0.73321111E+00
  0.40012997E+00  0.78251565E+00  0.75231048E+00
  0.58449081E+00  0.19083336E+00  0.18943972E+00
  0.88933445E+00  0.67925808E+00  0.20555639E+00
  0.10282844E+00  0.30787480E+00  0.76619852E+00
  0.57622635E+00  0.30507408E+00  0.72717099E+00
  0.39253645E+00  0.70833190E+00  0.27429887E+00
  0.27209779E+00  0.93880482E-01  0.20487674E+00
  0.70066137E+00  0.89076858E+00  0.82119463E+00
  0.78249441E+00  0.42324944E+00  0.81703601E+00
  0.20502547E+00  0.60675141E+00  0.19217193E+00
  0.21061296E+00  0.89315529E+00  0.70105113E+00
  0.73577618E+00  0.98825718E-01  0.30624088E+00
  0.72373817E+00  0.58400143E+00  0.31229700E+00
  0.29707842E+00  0.39646610E+00  0.70449359E+00
  0.21072037E+00  0.25724262E+00  0.10247986E+00
  0.83384105E+00  0.71268315E+00  0.89841591E+00
  0.77929790E+00  0.79603892E+00  0.40402769E+00
  0.21133907E+00  0.21483702E+00  0.59947699E+00
  0.70573696E+00  0.19446427E+00  0.91539659E+00
  0.29404026E+00  0.77546970E+00  0.73923138E-01
  0.28720115E+00  0.70917798E+00  0.58600494E+00
  0.69253293E+00  0.29000824E+00  0.37391167E+00
  0.95706012E+00  0.36598413E+00  0.93312742E+00
  0.74701302E-01  0.62852290E+00  0.42229454E-01
  0.56871560E+00  0.66644205E+00  0.46322415E+00
  0.44743628E+00  0.34998950E+00  0.52685803E+00
  0.44387463E+00  0.14855788E+00  0.21634132E-01
  0.52339146E+00  0.84074388E+00  0.97305253E+00
  0.27566587E-01  0.85641688E+00  0.53677927E+00
  0.91626592E+00  0.15959398E+00  0.50110116E+00
  0.84088248E+00  0.51262957E+00  0.49188294E-01
  0.16412260E+00  0.47392049E+00  0.94882931E+00
  0.15492916E+00  0.30348434E-01  0.47770868E+00
  0.83705735E+00  0.96709913E+00  0.58063825E+00
  0.65296761E+00  0.46640313E+00  0.54854178E+00
  0.33554117E+00  0.53608971E+00  0.44894039E+00
  0.34834460E+00  0.97692036E+00  0.93195599E+00
  0.66076820E+00  0.26946329E-01  0.57986874E-01
  0.30117201E-01  0.42569320E+00  0.14500116E+00
  0.96536066E+00  0.56500326E+00  0.85364434E+00
  0.52859191E+00  0.50326777E-01  0.84517351E+00
  0.47044913E+00  0.95004047E+00  0.14185219E+00
  0.95804532E+00  0.97925120E+00  0.34362761E+00
  0.22681824E-01  0.50710852E-01  0.66535111E+00
  0.47172791E+00  0.56284453E+00  0.64659279E+00
  0.53569070E+00  0.44698008E+00  0.34886088E+00
  0.59345308E+00  0.68462056E+00  0.79395520E+00
  0.41466179E+00  0.31169196E+00  0.23175218E+00
  0.89317312E+00  0.27274407E+00  0.27777791E+00
  0.11309703E+00  0.66632836E+00  0.71755028E+00
  0.40024307E+00  0.19751854E+00  0.72613826E+00
  0.58987801E+00  0.78163504E+00  0.27133482E+00
  0.94909821E-01  0.82557411E+00  0.23352355E+00
  0.88987822E+00  0.20958810E+00  0.78321525E+00
  0.79914591E+00  0.61229670E+00  0.69242169E+00
  0.21008524E+00  0.39409911E+00  0.33630863E+00
  0.28266232E+00  0.88723086E+00  0.30328026E+00
  0.71338294E+00  0.89000837E-01  0.71624830E+00
  0.72877047E+00  0.38356517E+00  0.17196712E+00
  0.29175995E+00  0.60579393E+00  0.80508501E+00
  0.20548991E+00  0.10065666E+00  0.80534605E+00
  0.77762595E+00  0.89781934E+00  0.20944804E+00
  0.69073714E+00  0.79170584E+00  0.63181968E+00
  0.31972493E+00  0.20022900E+00  0.40354325E+00
  0.27948463E+00  0.30876327E+00  0.89663106E+00
  0.71365521E+00  0.71373203E+00  0.77044025E-01
  0.17138791E+00  0.72873952E+00  0.40385533E+00
  0.78302512E+00  0.28102238E+00  0.61858487E+00
  0.83008942E+00  0.21197032E+00  0.10566347E+00
  0.18621061E+00  0.76447750E+00  0.88271274E+00
  0.43740585E+00  0.85650918E+00  0.47044091E+00
  0.57803655E+00  0.13706213E+00  0.52797057E+00
  0.67304973E-01  0.15374829E+00  0.95362970E+00
  0.97565175E+00  0.84662459E+00  0.11659704E-01
  0.93333235E+00  0.65075933E+00  0.51643475E+00
  0.27988665E-01  0.33033221E+00  0.48483669E+00
  0.53725584E+00  0.34640756E+00  0.32030712E-01
  0.46661375E+00  0.63690210E+00  0.96845914E+00
  0.34420509E+00  0.28614132E-01  0.54089865E+00
  0.65922886E+00  0.96497326E+00  0.43515106E+00
  0.66276225E+00  0.51805376E+00  0.96985697E+00
  0.36713304E+00  0.45717764E+00  0.61667066E-01
  0.16772408E+00  0.97607051E+00  0.51930434E-01
  0.86253879E+00  0.20845174E-01  0.97257658E+00
  0.85697907E+00  0.44781927E+00  0.44315392E+00
  0.15161412E+00  0.48391992E+00  0.57469109E+00
  0.52341169E+00  0.96362373E+00  0.66458584E+00
  0.47478977E+00  0.54676940E-01  0.35291437E+00
  0.39207403E-01  0.52852964E+00  0.35324582E+00
  0.93600421E+00  0.46751590E+00  0.64990345E+00
  0.48977826E+00  0.45779578E+00  0.83766969E+00
  0.52751610E+00  0.57456646E+00  0.17155424E+00
  0.98763189E+00  0.47126922E-01  0.15342958E+00
  0.41131805E-01  0.96076892E+00  0.84914538E+00
  0.12030894E+00  0.27011328E-02  0.25334841E+00
  0.87950488E+00  0.14814742E-01  0.74691610E+00
  0.37743240E+00  0.99773251E+00  0.75210996E+00
  0.60473018E+00  0.63537899E-02  0.23629505E+00
  0.87048336E+00  0.48539405E+00  0.25558097E+00
  0.12002216E+00  0.48715757E+00  0.75388238E+00
  0.64194313E+00  0.52937285E+00  0.75943696E+00
  0.37043333E+00  0.50640203E+00  0.25124935E+00
  0.24594886E+00  0.13560548E+00  0.98263661E+00
  0.77541318E+00  0.86616241E+00  0.12248347E-01
  0.74988032E+00  0.36273258E+00  0.99069090E+00
  0.26695792E+00  0.61118998E+00  0.98707395E+00
  0.24511777E+00  0.87084570E+00  0.49616709E+00
  0.73972775E+00  0.13310127E+00  0.48092859E+00
  0.74078321E+00  0.63054768E+00  0.50869611E+00
  0.25592865E+00  0.38038090E+00  0.51426815E+00
  0.99527503E+00  0.23465437E+00  0.13959150E+00
  0.77088463E-02  0.75300865E+00  0.87114131E+00
  0.99012776E+00  0.75821450E+00  0.39387886E+00
  0.95715831E+00  0.24907369E+00  0.63750874E+00
  0.48020031E+00  0.27260567E+00  0.87257128E+00
  0.50330235E+00  0.75252618E+00  0.11056193E+00
  0.48983672E+00  0.75443208E+00  0.61637834E+00
  0.50072623E+00  0.25546856E+00  0.39578329E+00
  0.19462827E-01  0.61823510E-02  0.73152091E-02
  0.49983018E+00  0.29840836E-02  0.48590651E+00
  0.98795272E+00  0.48940072E+00  0.49622052E+00
  0.51651900E+00  0.49460549E+00  0.21280765E-01
  0.72965200E+00  0.24408270E+00  0.21350543E+00
  0.24167634E+00  0.72673338E+00  0.73268353E+00
  0.76408477E+00  0.74508616E+00  0.76176319E+00
  0.25283942E+00  0.24158662E+00  0.25067906E+00
  0.23653178E+00  0.24301407E+00  0.74697161E+00
  0.74357613E+00  0.74504010E+00  0.24635517E+00
  0.24180984E+00  0.76053166E+00  0.22365880E+00
  0.72858762E+00  0.24376511E+00  0.77138816E+00
  0.50473970E+00  0.50242217E+00  0.50537497E+00
  0.12766966E-01  0.49801175E+00  0.68501774E-02
  0.48976751E+00  0.99509094E+00  0.98180039E+00
  0.98572637E+00  0.15055849E-02  0.51387224E+00
  0.33835289E+00  0.63465675E-01  0.34169469E+00
  0.11468185E+00  0.63585628E+00  0.58021604E+00
  0.31321398E+00  0.84180369E+00  0.96725983E+00
  0.66283963E+00  0.43481053E+00  0.32167784E+00
  0.72219963E+00  0.89695959E+00  0.54720176E+00
  0.33330129E+00  0.54695062E+00  0.64613933E+00
  0.60372883E+00  0.80364553E+00  0.42710987E+00
  0.71936262E+00  0.55475137E+00  0.10587549E+00
  0.64330653E+00  0.34345793E+00  0.58488741E+00
  0.16637439E+00  0.23138183E-01  0.65330771E+00
  0.89924057E+00  0.30522947E+00  0.41130685E+00
  0.74294431E-01  0.87737616E+00  0.73414515E+00
  0.79328213E+00  0.93608609E+00  0.35859606E+00
  0.50907698E+00  0.18705336E+00  0.63957336E+00
  0.78257771E+00  0.41641746E+00  0.56797793E+00
  0.82386282E+00  0.54772290E+00  0.87893333E+00
  0.34144533E+00  0.45497777E+00  0.81858121E+00
  0.44175835E+00  0.16316925E+00  0.16760737E+00
  0.97385493E+00  0.81296446E+00  0.16715367E+00
  0.43187577E+00  0.84953139E+00  0.26959798E+00
  0.30109955E+00  0.67017612E+00  0.45218362E+00
  0.91473006E-01  0.36647521E+00  0.34292096E+00
  0.14031090E+00  0.48822094E+00  0.17496776E+00
  0.58148840E+00  0.61310858E+00  0.31564402E+00
  0.56300525E+00  0.35601469E+00  0.20432159E+00
  0.43896343E+00  0.37901261E+00  0.66425571E+00
  0.18294900E+00  0.94550410E+00  0.84907100E+00
  0.14448540E+00  0.83482440E+00  0.15971777E-01
  0.91949982E+00  0.79613597E+00  0.60709852E+00
  0.74408836E+00  0.70767038E-01  0.91639019E+00
  0.61374852E+00  0.16479799E+00  0.59467360E-01
  0.76496085E-01  0.93193519E-01  0.82572403E+00
  0.40700931E+00  0.32766257E+00  0.84349065E-01
  0.44178311E+00  0.74851380E+00  0.37870462E+00
  0.82551992E+00  0.67794100E-01  0.87034582E-01
  0.51929730E+00  0.75720479E+00  0.86962761E+00
  0.61965092E+00  0.63999233E+00  0.95205129E+00
  0.25554441E+00  0.37995348E+00  0.10903177E-01
  0.88704523E+00  0.11831990E+00  0.28575135E+00
  0.90102166E+00  0.18425696E+00  0.93082444E+00
  0.92079326E+00  0.42651965E+00  0.79720410E+00
  0.44689651E+00  0.62304331E+00  0.80346745E+00
  0.14384676E+00  0.60238669E+00  0.34615417E+00
  0.99196832E-01  0.32890082E+00  0.92348086E+00
  0.95191536E+00  0.59569438E+00  0.70730351E+00