ISMEAR = 0
SIGMA = 0.2
EDIFF = 1E-5
ENCUT = 500
IBRION = 0
MDALGO = 2
ISIF = 2
SMASS = 0.0
LREAL = Auto
ALGO = Normal
PREC = Normal
ISYM = 0
TEBEG = 1500
TEEND = 1500
NSW = 5000
POTIM = 2.0
NCORE = 20
LWAVE = .FALSE.
LCHARG = .FALSE.
