ISMEAR = 0
SIGMA = 0.2
EDIFF = 1E-7
ENCUT = 500
IBRION = -1
ISYM = 0
NSW = 0
NELM = 100
LREAL = .FALSE.
ADDGRID = .TRUE.
NCORE = 20
LWAVE = .FALSE.
LCHARGE = .FALSE.
