LLZO_Ia3d_partial_45                    
   1.00000000000000     
    13.1834654454616906    0.0110627769907336   -0.0211747461234213
     0.0114347382431554   13.0100772763221464   -0.0182824064352558
    -0.0217518968904201   -0.0184039729048627   12.9564783051847989
   O    La   Zr   Li   Al
    96    24    16    50     2
Direct
  0.0940555703928971  0.2023770413157273  0.2876542703587306
  0.8943731896611719  0.8076049939383914  0.7199447108984361
  0.3929811485806680  0.8021081405656836  0.7817931286704431
  0.6030705900927744  0.1885291696124123  0.2280929972524414
  0.9008203477390210  0.7044783914752394  0.2060302647326293
  0.1022232190479419  0.3113471997145761  0.7702120328525126
  0.6045101360322293  0.3087592711692225  0.7256627216850179
  0.4014705165013648  0.7035863826430390  0.2721643385841634
  0.2749340452096555  0.0984503178173854  0.1969456465126422
  0.7196059148074897  0.9054624072465509  0.8042188773251550
  0.7734713893338691  0.4016596738265541  0.8139828492598774
  0.2212732707227603  0.5963415717501487  0.1932418452388396
  0.2193396159495247  0.9013861556399093  0.7000941509090202
  0.7770786680337182  0.0942292874479581  0.3134209614649696
  0.7145712096031083  0.6046525065806038  0.2947790673260461
  0.2802162009215294  0.4084743934427588  0.6958168443427694
  0.1925979434488665  0.2832275734972779  0.1027788932278030
  0.7994995185991668  0.7173545947720110  0.8998188676029834
  0.8016059823727640  0.7856667270402912  0.3974699995450410
  0.2028897922752778  0.2182464951584397  0.5975722636496288
  0.7132288860278529  0.2085393998988647  0.9001793507095091
  0.3033863915175143  0.7859200100915994  0.0941732705526182
  0.2874324265051517  0.7087154534132433  0.6019397223316473
  0.6952203543814462  0.2805597470730143  0.4036030702925743
  0.9397802600021576  0.3489509096903576  0.9727446892004242
  0.0399398107810859  0.6534452512273718  0.0456139109474318
  0.5537893924979150  0.6552211250667050  0.4675797419226500
  0.4388564562458637  0.3585771668031210  0.5365485908792325
  0.4411639837497207  0.1539403447119232  0.0353655231745085
  0.5522384406112124  0.8557549657118028  0.9595405582303737
  0.0576851338267218  0.8526966074155506  0.5374532570338499
  0.9544351213300932  0.1543355759039013  0.4642741804298285
  0.8440181810936102  0.5289057445642656  0.0505374327156463
  0.1445530910776908  0.4800803512902946  0.9470706609996937
  0.1487090269810629  0.0221365295539265  0.4365605782427985
  0.8529606765737385  0.9803530264799720  0.5521077400901842
  0.6501380875977353  0.4729663267315898  0.5422180237589528
  0.3567324449096905  0.5385731569660293  0.4319252768578054
  0.3476668373537014  0.9790316812931460  0.9380842582715988
  0.6426603373456167  0.0306712040050975  0.0543638481470164
  0.0301792945349009  0.4463947815444067  0.1517850722697014
  0.9603974874925669  0.5550120071381111  0.8500971211009299
  0.5316403508881886  0.0583967501032097  0.8454885724975563
  0.4667787597621507  0.9440278047114586  0.1454447191909401
  0.9714038654792272  0.9356433903458461  0.3526377863904743
  0.0355289056987243  0.0560136543780157  0.6498452199603165
  0.4669505582742768  0.5577929140503339  0.6492645596827175
  0.5328009972747846  0.4432348803237429  0.3488367014831970
  0.5999088005994749  0.6978724682946487  0.7840330323690723
  0.3957907949291691  0.2974325268699746  0.2207761699849049
  0.9062899436916526  0.2980020158658395  0.2862113224098204
  0.0933867818097624  0.6936716726748549  0.7192508814982902
  0.3993894008426114  0.1986817065068198  0.7171042206821148
  0.6008002175011895  0.8039192193853343  0.2814688323849021
  0.0971922375661868  0.8016317637847910  0.2007305808079706
  0.9046994444822340  0.1939845115444592  0.7794849140622283
  0.7772831941787490  0.6046315377210570  0.6916902139891657
  0.2188380266456528  0.4039162626503324  0.3008126491796067
  0.2801159793484053  0.8981416882218112  0.2960609737407083
  0.7147213787692716  0.1018427053685715  0.6963476099252786
  0.7254088495692563  0.3954020357949146  0.2007524080539858
  0.2791232141358668  0.5976818669424422  0.8044960794460988
  0.2160486308676270  0.1054400305887057  0.8007231985047335
  0.7751007412425026  0.9065545704904616  0.1981057866219601
  0.6901244602739863  0.7878521631796097  0.5982305514448381
  0.3093137635639509  0.2204866694419678  0.4002502003381768
  0.3100247073596823  0.2900740918928722  0.8954470095759287
  0.6951239134364801  0.7249574245116523  0.0923783038620696
  0.1892442970247356  0.7170596399297356  0.3915837327739335
  0.8155133444979222  0.2728805349301787  0.6039712000818734
  0.8085026606462781  0.2193153314046379  0.1055107891991850
  0.1918788749452503  0.7831496089099059  0.9031506310156879
  0.4334169733894848  0.8468742982424523  0.4701129212559030
  0.5365800029563459  0.1486068448278614  0.5362638656514462
  0.0434954365816571  0.1490761902917288  0.9557968542351832
  0.9463680163359242  0.8458070731890531  0.0316030936803906
  0.9516038838915779  0.6514667438196068  0.5329549480780955
  0.0467923800296322  0.3491659094929230  0.4500503972578767
  0.5505182830297133  0.3469259244563346  0.0217502612029097
  0.4410605364213949  0.6478972416804246  0.9623452867193449
  0.3407203729951369  0.0320202025298819  0.5553473002568071
  0.6413031288811417  0.9696474517244790  0.4586567908068516
  0.6496483855539359  0.5323543080753685  0.9491320546383470
  0.3519534570337525  0.4628100858241213  0.0524317411161974
  0.1483363380159259  0.9765984359937327  0.0427006759730371
  0.8477731341755175  0.0302833719574729  0.9446847188595193
  0.8469680046826658  0.4798674199672530  0.4379879680732912
  0.1509353837254762  0.5300628453552589  0.5360507391842304
  0.5250770931209425  0.9455742652106699  0.6530938865161667
  0.4666473657741100  0.0490738385395624  0.3465617508180451
  0.0282933196673681  0.5565995165989192  0.3406798186529538
  0.9739559090379108  0.4538874381368946  0.6450802606656255
  0.4703336817538887  0.4519692760422034  0.8415156256465800
  0.5343149002997842  0.5608120964303680  0.1442118087431230
  0.9791288353955381  0.0617342131657587  0.1448783654110496
  0.0290699842280875  0.9451962887857811  0.8446523447598917
  0.1128726835707826  0.0009028367383924  0.2497217743210337
  0.8703031797437757 -0.0002926067347121  0.7439326467745879
  0.3699253678396868  0.0003989932829344  0.7508523744544019
  0.6213167345498076  0.0031142291527030  0.2472713628387218
  0.8644405794058706  0.4994835775967023  0.2495936461153211
  0.1209294434401648  0.4968324977739951  0.7552035184302068
  0.6324842906029393  0.4972652738026651  0.7445127469779645
  0.3819047057529938  0.4967728716063704  0.2464899436168942
  0.2463668828357169  0.1292124679536754  0.9972255833371996
  0.7442784399362953  0.8858978531564039  0.9985730326555299
  0.7468039287085372  0.3683235143837673  0.0028599458150406
  0.2544015057076798  0.6193893213933519  0.9983492169203833
  0.2464845341794935  0.8750979991567036  0.4999177666260292
  0.7473135680368559  0.1288854786165717  0.4998311951059870
  0.7472038461316953  0.6232937319859878  0.4996239031588268
  0.2521791153170777  0.3758558441686686  0.4977819609699173
  0.9977428998202490  0.2481570252661252  0.1195613705689824
  0.9943058463349556  0.7487062221887563  0.8672409347853350
  0.9988633072925444  0.7526967996255249  0.3794869600136233
  0.9969797328537288  0.2519645475614872  0.6279390727067021
  0.4978578910524729  0.2505450056096340  0.8670903549353547
  0.4988196148892821  0.7531831678033950  0.1155033120552108
  0.4990887306504765  0.7510803740916201  0.6278578982936867
  0.5003935808311214  0.2514621952570015  0.3713523590739252
  0.9981292585836669  0.0032632509552967  0.9976751125132931
  0.4903097214318968  0.9998760439168992  0.4970414525633600
  0.9957456376709996  0.5008556165201009  0.4934891301458199
  0.5014133795485138  0.4977985243082826  0.9959017720467788
  0.7505978662409439  0.2431571110477343  0.2551966054927912
  0.2457579647526579  0.7507114115319569  0.7513400166146439
  0.7469517350337913  0.7534762298944001  0.7482480814188165
  0.2494508670344673  0.2501353025682441  0.2533748526674209
  0.2501623281941563  0.2549343134328736  0.7487402902576960
  0.7472543861945349  0.7582012777277356  0.2452456383531983
  0.2534359946969353  0.7477842763453261  0.2455615264278703
  0.7531986735659046  0.2537568912989348  0.7490391225356385
  0.4991960325519197  0.5033024990365246  0.4976531770024464
  0.9930710327962963  0.4938474788081155  0.9995094808178361
  0.4967355169568594  0.0041609541482123  0.9982058784601223
  0.0032893191487009  0.0005945957286396  0.4976167863857251
  0.5710600191123096  0.0935334062520237  0.6846849805563111
  0.4037170612336262  0.3148740873435966  0.0765243715131816
  0.1730355588696228  0.9320681543842501  0.8728602560734893
  0.8133119311655106  0.5681014641813810  0.8899950331289587
  0.6711665247708881  0.4212275882415434  0.3918921867791481
  0.1786789411444829  0.0741690461126682  0.6500274467156052
  0.0766520911603054  0.5836371170204668  0.1893387728835213
  0.0752357821278634  0.4160982479437529  0.3020498425086213
  0.4237566002578249  0.7021046533163134  0.4145447849512964
  0.8730260320141732  0.1737829357030740  0.9189171361228023
  0.7706795781845628  0.3767533537140308  0.5198445645627280
  0.6774967989838941  0.5808008720642452  0.0953506325334439
  0.1759557800278333  0.8383860682264910  0.0458107660312777
  0.8271918820569193  0.9363567381294037  0.3568450862603286
  0.3241430021592616  0.9375708580136737  0.1501227060201880
  0.5602402258502771  0.2218722527303795  0.0975742230022632
  0.3293491444077349  0.4369784813186212  0.8428012411858528
  0.4184704036418802  0.1230599775453555  0.1792460858801870
  0.3215253538505077  0.5650817839560440  0.6589760987687807
  0.4317528747600361  0.8665055399948818  0.3179511888042336
  0.9189771944337678  0.6000707011753166  0.6747292524236352
  0.6649121304013786  0.9337627398124416  0.6159251459891408
  0.8592741848378497  0.0290638899754786  0.2085781918342358
  0.3781536563046586  0.1764617280714416  0.5731454925940721
  0.0716457380711319  0.0946493683612957  0.8095168571094250
  0.6762009005158306  0.0720141513334660  0.8453743244627944
  0.6554159930518439  0.6755912470620677  0.9297566271634043
  0.0799137550553989  0.9184601523479199  0.6950919921016501
  0.4257511791907533  0.5957302928740423  0.8123238906016654
  0.6369128387784321  0.8258253696626657  0.4318363630300763
  0.1762999472772369  0.4307483154838333  0.1506514829888074
  0.1272282683565733  0.6695303732639059  0.5785907634494041
  0.4227157282458662  0.4106471511048193  0.6832788850769625
  0.9877531176248099  0.7633740116048801  0.6241659554944574
  0.8922836743294396  0.4502971184351136  0.7649452216889008
  0.8256445630903170  0.6713145283474089  0.0437944066629276
  0.4953580452653217  0.7545230286149792  0.8726414379680461
  0.3272663595717125  0.0404251829925843  0.3253329611711032
  0.0131270092234164  0.2705560943890363  0.8731871910555584
  0.2294498402287125  0.1312482076676422  0.4797851805711046
  0.5786398969730624  0.9167981426075473  0.8054738684889277
  0.2603438153159052  0.6249151469104908  0.4870071755807402
  0.5751420174299895  0.6570110140584952  0.3212814111059973
  0.2345895546178006  0.3701713962934055  0.9904366440495396
  0.5296584910386752  0.2714406921677584  0.6114192287361598
  0.3320045112003472  0.8366789866829382  0.9451786874724030
  0.8078848944352532  0.8475514732586209  0.5326162654519656
  0.6155074821397811  0.4808812347472577  0.2343876632571138
  0.7440313986569703  0.1223440839940736  0.0211830413724463
  0.1735846748392605  0.5648900141617206  0.3471235022281530
  0.9944704479226303  0.7578564531185807  0.1233301765585351
  0.9966706718525370  0.2448938331649427  0.3737485547889900
 
  0.00000000E+00  0.00000000E+00  0.00000000E+00
  0.00000000E+00  0.00000000E+00  0.00000000E+00
  0.00000000E+00  0.00000000E+00  0.00000000E+00
  0.00000000E+00  0.00000000E+00  0.00000000E+00
  0.00000000E+00  0.00000000E+00  0.00000000E+00
  0.00000000E+00  0.00000000E+00  0.00000000E+00
  0.00000000E+00  0.00000000E+00  0.00000000E+00
  0.00000000E+00  0.00000000E+00  0.00000000E+00
  0.00000000E+00  0.00000000E+00  0.00000000E+00
  0.00000000E+00  0.00000000E+00  0.00000000E+00
  0.00000000E+00  0.00000000E+00  0.00000000E+00
  0.00000000E+00  0.00000000E+00  0.00000000E+00
  0.00000000E+00  0.00000000E+00  0.00000000E+00
  0.00000000E+00  0.00000000E+00  0.00000000E+00
  0.00000000E+00  0.00000000E+00  0.00000000E+00
  0.00000000E+00  0.00000000E+00  0.00000000E+00
  0.00000000E+00  0.00000000E+00  0.00000000E+00
  0.00000000E+00  0.00000000E+00  0.00000000E+00
  0.00000000E+00  0.00000000E+00  0.00000000E+00
  0.00000000E+00  0.00000000E+00  0.00000000E+00
  0.00000000E+00  0.00000000E+00  0.00000000E+00
  0.00000000E+00  0.00000000E+00  0.00000000E+00
  0.00000000E+00  0.00000000E+00  0.00000000E+00
  0.00000000E+00  0.00000000E+00  0.00000000E+00
  0.00000000E+00  0.00000000E+00  0.00000000E+00
  0.00000000E+00  0.00000000E+00  0.00000000E+00
  0.00000000E+00  0.00000000E+00  0.00000000E+00
  0.00000000E+00  0.00000000E+00  0.00000000E+00
  0.00000000E+00  0.00000000E+00  0.00000000E+00
  0.00000000E+00  0.00000000E+00  0.00000000E+00
  0.00000000E+00  0.00000000E+00  0.00000000E+00
  0.00000000E+00  0.00000000E+00  0.00000000E+00
  0.00000000E+00  0.00000000E+00  0.00000000E+00
  0.00000000E+00  0.00000000E+00  0.00000000E+00
  0.00000000E+00  0.00000000E+00  0.00000000E+00
  0.00000000E+00  0.00000000E+00  0.00000000E+00
  0.00000000E+00  0.00000000E+00  0.00000000E+00
  0.00000000E+00  0.00000000E+00  0.00000000E+00
  0.00000000E+00  0.00000000E+00  0.00000000E+00
  0.00000000E+00  0.00000000E+00  0.00000000E+00
  0.00000000E+00  0.00000000E+00  0.00000000E+00
  0.00000000E+00  0.00000000E+00  0.00000000E+00
  0.00000000E+00  0.00000000E+00  0.00000000E+00
  0.00000000E+00  0.00000000E+00  0.00000000E+00
  0.00000000E+00  0.00000000E+00  0.00000000E+00
  0.00000000E+00  0.00000000E+00  0.00000000E+00
  0.00000000E+00  0.00000000E+00  0.00000000E+00
  0.00000000E+00  0.00000000E+00  0.00000000E+00
  0.00000000E+00  0.00000000E+00  0.00000000E+00
  0.00000000E+00  0.00000000E+00  0.00000000E+00
  0.00000000E+00  0.00000000E+00  0.00000000E+00
  0.00000000E+00  0.00000000E+00  0.00000000E+00
  0.00000000E+00  0.00000000E+00  0.00000000E+00
  0.00000000E+00  0.00000000E+00  0.00000000E+00
  0.00000000E+00  0.00000000E+00  0.00000000E+00
  0.00000000E+00  0.00000000E+00  0.00000000E+00
  0.00000000E+00  0.00000000E+00  0.00000000E+00
  0.00000000E+00  0.00000000E+00  0.00000000E+00
  0.00000000E+00  0.00000000E+00  0.00000000E+00
  0.00000000E+00  0.00000000E+00  0.00000000E+00
  0.00000000E+00  0.00000000E+00  0.00000000E+00
  0.00000000E+00  0.00000000E+00  0.00000000E+00
  0.00000000E+00  0.00000000E+00  0.00000000E+00
  0.00000000E+00  0.00000000E+00  0.00000000E+00
  0.00000000E+00  0.00000000E+00  0.00000000E+00
  0.00000000E+00  0.00000000E+00  0.00000000E+00
  0.00000000E+00  0.00000000E+00  0.00000000E+00
  0.00000000E+00  0.00000000E+00  0.00000000E+00
  0.00000000E+00  0.00000000E+00  0.00000000E+00
  0.00000000E+00  0.00000000E+00  0.00000000E+00
  0.00000000E+00  0.00000000E+00  0.00000000E+00
  0.00000000E+00  0.00000000E+00  0.00000000E+00
  0.00000000E+00  0.00000000E+00  0.00000000E+00
  0.00000000E+00  0.00000000E+00  0.00000000E+00
  0.00000000E+00  0.00000000E+00  0.00000000E+00
  0.00000000E+00  0.00000000E+00  0.00000000E+00
  0.00000000E+00  0.00000000E+00  0.00000000E+00
  0.00000000E+00  0.00000000E+00  0.00000000E+00
  0.00000000E+00  0.00000000E+00  0.00000000E+00
  0.00000000E+00  0.00000000E+00  0.00000000E+00
  0.00000000E+00  0.00000000E+00  0.00000000E+00
  0.00000000E+00  0.00000000E+00  0.00000000E+00
  0.00000000E+00  0.00000000E+00  0.00000000E+00
  0.00000000E+00  0.00000000E+00  0.00000000E+00
  0.00000000E+00  0.00000000E+00  0.00000000E+00
  0.00000000E+00  0.00000000E+00  0.00000000E+00
  0.00000000E+00  0.00000000E+00  0.00000000E+00
  0.00000000E+00  0.00000000E+00  0.00000000E+00
  0.00000000E+00  0.00000000E+00  0.00000000E+00
  0.00000000E+00  0.00000000E+00  0.00000000E+00
  0.00000000E+00  0.00000000E+00  0.00000000E+00
  0.00000000E+00  0.00000000E+00  0.00000000E+00
  0.00000000E+00  0.00000000E+00  0.00000000E+00
  0.00000000E+00  0.00000000E+00  0.00000000E+00
  0.00000000E+00  0.00000000E+00  0.00000000E+00
  0.00000000E+00  0.00000000E+00  0.00000000E+00
  0.00000000E+00  0.00000000E+00  0.00000000E+00
  0.00000000E+00  0.00000000E+00  0.00000000E+00
  0.00000000E+00  0.00000000E+00  0.00000000E+00
  0.00000000E+00  0.00000000E+00  0.00000000E+00
  0.00000000E+00  0.00000000E+00  0.00000000E+00
  0.00000000E+00  0.00000000E+00  0.00000000E+00
  0.00000000E+00  0.00000000E+00  0.00000000E+00
  0.00000000E+00  0.00000000E+00  0.00000000E+00
  0.00000000E+00  0.00000000E+00  0.00000000E+00
  0.00000000E+00  0.00000000E+00  0.00000000E+00
  0.00000000E+00  0.00000000E+00  0.00000000E+00
  0.00000000E+00  0.00000000E+00  0.00000000E+00
  0.00000000E+00  0.00000000E+00  0.00000000E+00
  0.00000000E+00  0.00000000E+00  0.00000000E+00
  0.00000000E+00  0.00000000E+00  0.00000000E+00
  0.00000000E+00  0.00000000E+00  0.00000000E+00
  0.00000000E+00  0.00000000E+00  0.00000000E+00
  0.00000000E+00  0.00000000E+00  0.00000000E+00
  0.00000000E+00  0.00000000E+00  0.00000000E+00
  0.00000000E+00  0.00000000E+00  0.00000000E+00
  0.00000000E+00  0.00000000E+00  0.00000000E+00
  0.00000000E+00  0.00000000E+00  0.00000000E+00
  0.00000000E+00  0.00000000E+00  0.00000000E+00
  0.00000000E+00  0.00000000E+00  0.00000000E+00
  0.00000000E+00  0.00000000E+00  0.00000000E+00
  0.00000000E+00  0.00000000E+00  0.00000000E+00
  0.00000000E+00  0.00000000E+00  0.00000000E+00
  0.00000000E+00  0.00000000E+00  0.00000000E+00
  0.00000000E+00  0.00000000E+00  0.00000000E+00
  0.00000000E+00  0.00000000E+00  0.00000000E+00
  0.00000000E+00  0.00000000E+00  0.00000000E+00
  0.00000000E+00  0.00000000E+00  0.00000000E+00
  0.00000000E+00  0.00000000E+00  0.00000000E+00
  0.00000000E+00  0.00000000E+00  0.00000000E+00
  0.00000000E+00  0.00000000E+00  0.00000000E+00
  0.00000000E+00  0.00000000E+00  0.00000000E+00
  0.00000000E+00  0.00000000E+00  0.00000000E+00
  0.00000000E+00  0.00000000E+00  0.00000000E+00
  0.00000000E+00  0.00000000E+00  0.00000000E+00
  0.00000000E+00  0.00000000E+00  0.00000000E+00
  0.00000000E+00  0.00000000E+00  0.00000000E+00
  0.00000000E+00  0.00000000E+00  0.00000000E+00
  0.00000000E+00  0.00000000E+00  0.00000000E+00
  0.00000000E+00  0.00000000E+00  0.00000000E+00
  0.00000000E+00  0.00000000E+00  0.00000000E+00
  0.00000000E+00  0.00000000E+00  0.00000000E+00
  0.00000000E+00  0.00000000E+00  0.00000000E+00
  0.00000000E+00  0.00000000E+00  0.00000000E+00
  0.00000000E+00  0.00000000E+00  0.00000000E+00
  0.00000000E+00  0.00000000E+00  0.00000000E+00
  0.00000000E+00  0.00000000E+00  0.00000000E+00
  0.00000000E+00  0.00000000E+00  0.00000000E+00
  0.00000000E+00  0.00000000E+00  0.00000000E+00
  0.00000000E+00  0.00000000E+00  0.00000000E+00
  0.00000000E+00  0.00000000E+00  0.00000000E+00
  0.00000000E+00  0.00000000E+00  0.00000000E+00
  0.00000000E+00  0.00000000E+00  0.00000000E+00
  0.00000000E+00  0.00000000E+00  0.00000000E+00
  0.00000000E+00  0.00000000E+00  0.00000000E+00
  0.00000000E+00  0.00000000E+00  0.00000000E+00
  0.00000000E+00  0.00000000E+00  0.00000000E+00
  0.00000000E+00  0.00000000E+00  0.00000000E+00
  0.00000000E+00  0.00000000E+00  0.00000000E+00
  0.00000000E+00  0.00000000E+00  0.00000000E+00
  0.00000000E+00  0.00000000E+00  0.00000000E+00
  0.00000000E+00  0.00000000E+00  0.00000000E+00
  0.00000000E+00  0.00000000E+00  0.00000000E+00
  0.00000000E+00  0.00000000E+00  0.00000000E+00
  0.00000000E+00  0.00000000E+00  0.00000000E+00
  0.00000000E+00  0.00000000E+00  0.00000000E+00
  0.00000000E+00  0.00000000E+00  0.00000000E+00
  0.00000000E+00  0.00000000E+00  0.00000000E+00
  0.00000000E+00  0.00000000E+00  0.00000000E+00
  0.00000000E+00  0.00000000E+00  0.00000000E+00
  0.00000000E+00  0.00000000E+00  0.00000000E+00
  0.00000000E+00  0.00000000E+00  0.00000000E+00
  0.00000000E+00  0.00000000E+00  0.00000000E+00
  0.00000000E+00  0.00000000E+00  0.00000000E+00
  0.00000000E+00  0.00000000E+00  0.00000000E+00
  0.00000000E+00  0.00000000E+00  0.00000000E+00
  0.00000000E+00  0.00000000E+00  0.00000000E+00
  0.00000000E+00  0.00000000E+00  0.00000000E+00
  0.00000000E+00  0.00000000E+00  0.00000000E+00
  0.00000000E+00  0.00000000E+00  0.00000000E+00
  0.00000000E+00  0.00000000E+00  0.00000000E+00
  0.00000000E+00  0.00000000E+00  0.00000000E+00
  0.00000000E+00  0.00000000E+00  0.00000000E+00
  0.00000000E+00  0.00000000E+00  0.00000000E+00
  0.00000000E+00  0.00000000E+00  0.00000000E+00
  0.00000000E+00  0.00000000E+00  0.00000000E+00
  0.00000000E+00  0.00000000E+00  0.00000000E+00
  0.00000000E+00  0.00000000E+00  0.00000000E+00
