LLZO_Ia3d_Al10_partial_34               
   1.00000000000000     
    12.9652004242000007    0.0000000000000000    0.0000000000000000
     0.0000000000000000   12.9650001526000000    0.0000000000000000
     0.0000000000000000    0.0000000000000000   12.9650001526000000
   O    La   Zr   Li   Al
    96    24    16    53     1
Direct
  0.0978580457263108  0.1751634187805795  0.2814293962038891
  0.8803408679649622  0.8219787619406564  0.7027733913381461
  0.4030055198098945  0.8168958350512957  0.7902437129348651
  0.6041176471336642  0.1885993992824837  0.2133078607352201
  0.9129984382973281  0.6684717239505040  0.2205886021954705
  0.0977766312365975  0.2885028171117921  0.7774578602392551
  0.5903733932658358  0.2979174541852610  0.7154193041793180
  0.4164970668821065  0.7027615569444704  0.2843209624548612
  0.2634599287777639  0.1003746707294521  0.1702458046168066
  0.7082922102082932  0.9001362708889630  0.7974453771776253
  0.7741801421775778  0.4039557747267837  0.7882090651988569
  0.2210692677729441  0.6027004066749349  0.2225238763424188
  0.2158964478617584  0.9113831204430947  0.6949523798338756
  0.7916612739934596  0.1167994051510934  0.3116168427405413
  0.7060197838806049  0.6038070667326164  0.3107556976416326
  0.2660432838586820  0.4122594864188669  0.6978342254221239
  0.1971896603617478  0.3092929104161186  0.1043135963010351
  0.8175329138142865  0.7203541527806272  0.8942770326502827
  0.7978987312529350  0.7660826315405226  0.3972264989267166
  0.1838046831362219  0.2220265939165501  0.5982942066521976
  0.6901912392604066  0.2259795277813607  0.8954328999556784
  0.3169957286431660  0.7606684525917532  0.1093665817540466
  0.2896429920786932  0.7273453495072416  0.6219694563723149
  0.6867581305284886  0.2907523392063927  0.3905170188233169
  0.9319413122507187  0.3633692169246104  0.9583170138485940
  0.0512617344484102  0.6516678950526034  0.0381564625116728
  0.5491557082962643  0.6451330648575830  0.4830054818162252
  0.4446916198363055  0.3410004545241676  0.5334092582047971
  0.4403032430503224  0.1647917270825053  0.0164448500133264
  0.5569907912047152  0.8558927682899025  0.9870896016143308
  0.0434818835484603  0.8581546092721460  0.5556922267170158
  0.9624357551873043  0.1587968923809034  0.4804796257768555
  0.8544851522276152  0.5248325747958601  0.0410601399703817
  0.1369652308353274  0.4471031121049719  0.9380368477905330
  0.1423117201723380  0.0362556362446187  0.4415615891786691
  0.8625580935233035  0.9633881455876128  0.5513985347416334
  0.6394992386816727  0.4420870245349043  0.5752659872801396
  0.3535544386305389  0.5259843882123828  0.4481025044591341
  0.3576605736717309  0.9797775112964979  0.9253216839500180
  0.6357619464831441  0.0404893817151906  0.0409562345766602
  0.0252320789181024  0.4458976110859236  0.1625966416882985
  0.9854536667720266  0.5675969085502498  0.8509117369706524
  0.5384896575500917  0.0589003527523987  0.8346047954090875
  0.4553686558937158  0.9611626598909355  0.1468234840334620
  0.9637123994061265  0.9504750461324811  0.3567631600886034
  0.0318454276594867  0.0658775954812948  0.6625071453025225
  0.4495031045778007  0.5365724893930011  0.6502479881697329
  0.5299075396150965  0.4412566366084353  0.3441641949663035
  0.5779461835921497  0.6942067362924673  0.7739354967713172
  0.4103257236553791  0.2791011853634794  0.2116962882209771
  0.8962210247885267  0.2855000973520209  0.2852093275950475
  0.1091310593466485  0.6931922285270319  0.7306425363949342
  0.4055427449812576  0.2054231443148676  0.7242224890133681
  0.6281663396573894  0.8345517941644305  0.2997734163928759
  0.1067561308875774  0.8053853201522098  0.2053171853895687
  0.8874305472780847  0.1963507227586752  0.7758231484495455
  0.7590807082746170  0.6003629517671182  0.6957653982525969
  0.2351440782644603  0.4003925479032329  0.3078896142956074
  0.2786610295670305  0.8891261388640609  0.3210757647748282
  0.7137504939338145  0.1093060600624860  0.6700811291850655
  0.7096660046907010  0.3967414749725349  0.1908421021633440
  0.2858600438996812  0.6165179240228897  0.8119398012520572
  0.2268886695852537  0.0902804847521162  0.8109422474806862
  0.7936114903935007  0.8987050591579209  0.1655750618264480
  0.6916305526217630  0.7785427143898099  0.5879826281170761
  0.2884569713788127  0.2075982955375257  0.3742753401321021
  0.2763031875348161  0.2767236498454115  0.9025057680733827
  0.6763412007934533  0.7097905559204228  0.1129182973417515
  0.1850916101476881  0.7231336596596690  0.4273548167951079
  0.7901534345141756  0.2792932669266970  0.5749660714433052
  0.7983137029382976  0.2229273011470380  0.0967296331941799
  0.1901764673215914  0.7782637686960472  0.9247244626152588
  0.4621992783724155  0.8332891922993454  0.4641424886812494
  0.5411315769680010  0.1578215929873401  0.5072439925247954
  0.0623908902062247  0.1509098676759966  0.9787107070753039
  0.9495447875005580  0.8460848012308734 -0.0041127456060074
  0.9580912295740139  0.6595909332669876  0.5426474396049724
  0.0415646948644924  0.3487170213269592  0.4686568017448884
  0.5535177646712132  0.3608026698970478  0.0458640312408021
  0.4388316188072985  0.6600613831827356  0.9703808628291060
  0.3553344431786641  0.0641776668257483  0.5486118315614149
  0.6722384949192300  0.9594810629716640  0.4594810765204103
  0.6416567973627171  0.5411104280028183  0.9433172261501126
  0.3679728923180416  0.4558427833562363  0.0523675408586821
  0.1598259113013196  0.9594845291426043  0.0594621169420666
  0.8459454166987235  0.0256210089474683  0.9312298268406034
  0.8320423498582602  0.4770248129096912  0.4312735179108045
  0.1264394687482358  0.5224377096292075  0.5580877083184224
  0.5404614094403005  0.9491020745312020  0.6408820337640424
  0.4702712007239884  0.0280483467776575  0.3434806668409829
  0.0208700029093592  0.5629691508946087  0.3575428158205686
  0.9745907111139253  0.4481609842782806  0.6460286479584747
  0.4776953780490642  0.4298480187628105  0.8493935817572451
  0.4941682704314150  0.5446734054114261  0.1537776041755638
  0.9597231812355875  0.0750851462398070  0.1427219079873568
  0.0655056199012850  0.9540211141339463  0.8506223892393012
  0.1249419976435576  0.9831269835683540  0.2428573284948458
  0.8819829327783628 -0.0001128491056760  0.7286796085126013
  0.3845227363505928 -0.0133346361709921  0.7308772076397668
  0.6319880184905005  0.9998732479104835  0.2236475500670285
  0.8642861772390965  0.4835684190560286  0.2535591582414904
  0.1181618543941571  0.4927268128095285  0.7660724422164985
  0.6004177417449150  0.4969482569337302  0.7447112024946437
  0.3670911477978529  0.5117111421609348  0.2670023209906646
  0.2566698067438065  0.1247085528061969 -0.0007871054162661
  0.7311745712499187  0.8725564066693747 -0.0099505209811923
  0.7447544782959320  0.4047790433227222  0.0036855362183085
  0.2644884075883059  0.6194459406012875  0.9998333513120242
  0.2329907852567032  0.8747546915370209  0.5074634520231822
  0.7475878783118522  0.1390206043226584  0.4818820205724436
  0.7376695646450006  0.6068021928326853  0.4939596393981012
  0.2378808183891644  0.3606693336064792  0.5076015915538353
  1.0038072424254234  0.2549111531929387  0.1298924485812681
  1.0077882726703264  0.7368944541257898  0.8697903141873988
  1.0008004876328951  0.7504035110938339  0.3921449596066990
 -0.0010665600159347  0.2435843727184436  0.6362808193953474
  0.5208704658114635  0.2400516882621900  0.8728643728446636
  0.4928437690501294  0.7392418797868575  0.1120234090235990
  0.5050940736492484  0.7632746079593939  0.6258791703314504
  0.4802261906788871  0.2612475033059772  0.3646984146525774
  0.0078474201659391 -0.0078530222811650  1.0000340664729108
  0.5118846426142276  0.0004788041840707  0.4856704307758524
 -0.0066353257774456  0.4981618603352906  0.4978601582944835
  0.5026301005197982  0.4952507037510059  0.9975043685190207
  0.7428790906343103  0.2460348849681012  0.2426762435084424
  0.2486188665792602  0.7602928687147134  0.7703239782018122
  0.7579124593021404  0.7516183188718558  0.7421288940513241
  0.2467049884357710  0.2437927278964121  0.2345662711414450
  0.2454879665614648  0.2430666673167396  0.7593537222356312
  0.7630804256711733  0.7342337916164869  0.2460833114355322
  0.2641327721144662  0.7395732166611303  0.2667595302850461
  0.7480011587286406  0.2443343653104244  0.7257751041756295
  0.5011181413781634  0.4798172427352289  0.5135797726627016
  0.9972084224346395  0.5125221181363190  0.0058593809248705
  0.4963085824766816  0.9994369480830986  0.9897770611917892
  0.0098225670680606  0.0019083585761214  0.5017194366154558
  1.2672071464240187  0.5876048528010634  0.6153574939108138
  0.5435068344701858  0.3452157863841674  1.1703324837480349
  0.4218705360223057  0.6962766138117518  0.4437126048487264
  0.5533667984718585  0.1603425982797891  0.6670675274109911
  1.1289514033932142  0.6691033107936922  0.5814483985320279
  0.7919347209393003  0.5719471009471774  0.8499029337064694
  0.6444803247962475  0.1808989761218099  0.0308581829459106
  0.3766016696891751  0.5015739213962971  0.7639244775572762
  0.3109510909413756  0.9365207841532152  0.0982061897200938
  0.2600722878799688  0.3866853631155087 -0.0145676716815761
  0.6741579967435637  0.4348574473574720  0.3308181352883119
  0.3415858189313661  1.0761317629225089  0.4146647402800495
  0.4159352003872109  0.3460950969276953  0.6804653551389066
  0.7132780913132200  0.0910548818012929  0.9172180888362733
  0.6262789344496678  0.5405511938329564  0.1989302656649408
  0.9109645175398126  0.3916372259469135  0.8218029501690614
  0.8242766739278233  0.9253720898278655  0.4037986808172296
 -0.1463021558234545  0.2984191400649078  0.4273017322945266
  0.6929827869233693  0.9223987430360249  0.5951558257714028
  0.9517494510125749  1.1370723724693008  0.3071974757327271
  0.4406031534947876  0.6689814223524072  0.8425800612534370
  0.0246797445378278  0.3571691906327434  0.3284774462023964
  0.0723571978197424  0.6099193120630807  0.2086998129129170
  0.8002958732541509  0.4521018262475955  0.6589832225607462
  0.9827961462996572  0.7520304912340932  1.1236689594508471
  0.3781907867181816  0.8210652712625136  0.9368210020150186
  0.6566143562258454  0.8090490612445800  0.4507334540545471
  0.4154515129820996  0.2022050488632634  0.5699655765168475
  0.9190527885984104  0.6020706196891465  0.7104548880767377
  0.0037466845379217  0.2025314446510924  0.8328976611148414
  0.4851380868725865  0.8314230893954100  0.3136973913244713
  0.8440149821916542  0.8324138720356865  0.5352986040241626
 -0.1440222766859613  0.1857431318742215  0.9676682229908057
  0.7561386480276109  0.6142690090217595  1.0555991211703744
  0.1534996550824977  0.4366711932353313  0.2009456983899996
  0.8318069674236070  0.0640574188099694  0.0984998606975019
  0.4758353754936093  0.1614462033953312  0.1575193789377033
  0.3983420565358541  0.3071400807449620  0.0843908407851438
  0.3754617600103747 -0.0243300233101029  0.2748850589879299
  1.1362035461288462  0.8045206573647224  0.0664376604133371
  0.0833612881570503  0.2056394825414386  0.4034505057171972
  0.6120595510300549  0.9894703325218331  0.7381922418134275
  0.2021392415991792  0.5878652241923711  0.4241354553162882
  0.2269055777577457  0.1439352950182399  0.4972387520881217
  0.5858803874022888  0.6722575688283207  0.9324336408326872
  0.8925361983477718  0.9900612493484586  0.2499089457106896
  0.0022059306533703  0.7770046412848635  0.6482486374075884
  0.5598898938796883  0.6906941602858501  0.3251150531986407
  0.6233091416187035  0.3185231191728944  0.5198752162533029
  0.5780098010348244  0.8525792469522838 -0.1624889263831319
  1.1974752626893055  0.9055519778547706 -0.0724787270368445
  0.7396229682549504  0.4024706314227474  0.4683993559723952
  0.0973389106697521  0.3111247036072861  0.9299110930453801
  0.1398240441150393  0.0114649778282893  0.7348951227796905
 
  0.10419815E-01  0.21537608E-01 -0.37346822E-02
  0.45498590E-02 -0.23710367E-01 -0.12212330E-01
 -0.51262946E-02  0.10835405E-01  0.10149430E-01
  0.51297626E-02 -0.70915188E-03 -0.11297567E-01
 -0.47092729E-02  0.11233892E-01 -0.45695175E-04
 -0.60126300E-02  0.13683598E-01  0.11345960E-01
  0.21480518E-02  0.36876142E-02  0.11054452E-01
  0.71225412E-02  0.12706530E-01 -0.63363210E-02
 -0.35415752E-02  0.52157172E-02 -0.50725103E-03
 -0.15742678E-01 -0.12869072E-01 -0.21158148E-01
 -0.23429869E-02  0.13169493E-01  0.14716332E-01
 -0.36873251E-02  0.41277263E-02 -0.15246457E-01
  0.30273068E-02 -0.49936707E-02 -0.36381035E-03
  0.42505580E-02  0.55552102E-02  0.36516355E-02
  0.18023624E-01  0.56868865E-02  0.93399900E-02
 -0.48550470E-02 -0.31382659E-02 -0.90125802E-03
  0.79842266E-02 -0.76187543E-02 -0.60739333E-03
 -0.53510199E-03 -0.59826823E-02  0.43592587E-02
  0.74182547E-02  0.91486506E-02  0.44071679E-02
  0.34285637E-02  0.19011314E-02  0.65811432E-02
  0.45862915E-02  0.31363320E-02 -0.77833477E-02
 -0.19730006E-01  0.18688092E-02  0.25708981E-02
 -0.18459682E-01  0.93962602E-02 -0.15164242E-02
 -0.80664436E-02 -0.50378640E-03 -0.26437442E-02
 -0.18723903E-03 -0.53120794E-02 -0.11208751E-01
  0.60643314E-02  0.95478138E-03  0.11656937E-01
 -0.36146855E-02 -0.61418233E-02 -0.13775643E-02
  0.46430668E-02  0.49970321E-02  0.28302480E-03
 -0.21758175E-02  0.51586715E-03  0.82466086E-02
 -0.11003051E-01 -0.55317774E-03 -0.17620096E-01
 -0.75467745E-02 -0.21535139E-02 -0.36173886E-03
  0.23265332E-02 -0.13387284E-01 -0.63950517E-02
 -0.14870908E-02 -0.95839680E-02 -0.21658151E-02
 -0.57984051E-02  0.21439739E-01 -0.10794466E-01
  0.11087570E-01 -0.14139139E-01 -0.14013331E-01
 -0.14164863E-01  0.67447564E-02 -0.27861333E-02
  0.22879865E-02  0.56981766E-02  0.44467001E-02
 -0.18147757E-01  0.68556694E-03  0.34294490E-03
 -0.91273163E-02  0.10233045E-01 -0.67639545E-02
  0.54850636E-02  0.12220712E-02  0.48795332E-02
 -0.11514702E-02  0.27212495E-02  0.31756286E-02
 -0.71725278E-02  0.23750271E-03  0.11879921E-01
 -0.11088183E-01 -0.63625158E-02 -0.74002444E-02
 -0.26165468E-02  0.13324249E-01  0.90844769E-02
 -0.27190069E-02  0.12323437E-01  0.17075065E-01
  0.11645584E-01  0.88146871E-03 -0.62842062E-02
  0.12352985E-01  0.10013680E-02 -0.10235124E-01
  0.38101662E-02 -0.37913338E-03  0.34785583E-02
  0.95644891E-02 -0.32704228E-02 -0.16528028E-01
  0.34564775E-02  0.92922046E-02  0.13571667E-01
  0.29007761E-02 -0.55644132E-02  0.74903018E-02
 -0.12933212E-02 -0.40808437E-02 -0.15549772E-02
  0.47834642E-02  0.15275040E-01 -0.15457052E-01
 -0.35891327E-02  0.60025487E-02  0.91612993E-02
  0.13226290E-01 -0.87619769E-03  0.99826750E-02
 -0.29079548E-02  0.13123892E-01  0.43842808E-02
  0.24666362E-03 -0.37406257E-02 -0.12231328E-02
  0.35517187E-02 -0.20171942E-01  0.23417134E-02
 -0.23777126E-02  0.33781605E-02 -0.68554445E-02
 -0.13737492E-03 -0.83559653E-02  0.41226107E-02
  0.12884741E-01  0.11429679E-01  0.13199026E-01
  0.78242026E-02 -0.24214840E-02 -0.10550377E-02
 -0.23191128E-02  0.12669317E-01 -0.94006334E-02
 -0.16602695E-01  0.65559347E-02 -0.75401281E-02
 -0.67303858E-02 -0.26393229E-02 -0.20690988E-02
  0.30150453E-02  0.79373072E-02  0.58937634E-02
  0.89006456E-03 -0.94054956E-02  0.11462090E-01
 -0.30929056E-02  0.15374599E-01  0.63114254E-02
 -0.75276202E-02 -0.12317915E-01  0.59480198E-02
 -0.72002126E-02 -0.15297697E-01  0.81469258E-02
 -0.14457780E-01  0.11836502E-02  0.52503512E-02
  0.69505428E-02  0.33208669E-04  0.14458248E-01
  0.95664231E-02 -0.54498308E-02  0.17335469E-02
  0.59116867E-02  0.91191248E-02 -0.19963928E-02
 -0.30022567E-02  0.36439276E-02  0.60569571E-02
 -0.51945828E-02 -0.15362580E-01  0.65813400E-02
  0.30863223E-02 -0.12088945E-01 -0.12295105E-02
 -0.44847636E-02 -0.26834234E-02  0.92621081E-02
  0.11448568E-01  0.63246144E-02 -0.11707757E-01
  0.10612788E-01 -0.10305015E-01 -0.75771078E-02
 -0.17945157E-01  0.63669398E-03 -0.42914346E-02
 -0.77652443E-02  0.14164836E-02 -0.13576943E-01
 -0.57687149E-02 -0.51810538E-02  0.11014501E-01
 -0.18884736E-01 -0.65066396E-02 -0.15763266E-01
  0.88667056E-02 -0.68028198E-02 -0.12184856E-01
 -0.17209763E-01  0.24992796E-03 -0.94379416E-02
  0.14460511E-01  0.30198130E-02 -0.11706530E-02
  0.17978775E-01  0.60415506E-03  0.64319221E-02
  0.23222423E-02  0.41715640E-02  0.89179188E-02
  0.15171936E-02 -0.47287285E-02  0.60007439E-03
 -0.43867468E-02  0.11502409E-02 -0.14116977E-01
  0.11406248E-01  0.10300585E-01 -0.41853212E-02
 -0.32142544E-02 -0.18929413E-02 -0.51782458E-02
  0.82683711E-02 -0.40600649E-02 -0.17300633E-01
  0.21497870E-02 -0.25461197E-02  0.64086012E-02
 -0.16738205E-01 -0.41286790E-03  0.34297899E-02
  0.37747501E-02 -0.25724223E-02  0.29465680E-02
  0.49873356E-03  0.87174003E-03  0.36456096E-02
  0.15354508E-02 -0.13158740E-02  0.95188173E-03
 -0.13155102E-02 -0.17030518E-03  0.35475625E-02
  0.81114023E-03 -0.41134101E-03 -0.48114273E-02
 -0.33841540E-02 -0.14096738E-02 -0.35914228E-03
  0.80324661E-03  0.38704846E-02 -0.16060127E-03
 -0.29206594E-02 -0.51833051E-02  0.19001909E-02
 -0.39233060E-02  0.63428337E-03  0.46812614E-02
  0.88039282E-03 -0.28250485E-03  0.22426002E-02
 -0.48429660E-02  0.92375309E-03 -0.43655688E-02
 -0.26351179E-02 -0.54209160E-02  0.14024535E-02
  0.41966747E-02  0.37462244E-02 -0.91931255E-03
 -0.16023594E-02 -0.82339180E-06  0.16486106E-02
  0.15617523E-02 -0.39298432E-03 -0.81636222E-02
  0.42822492E-02  0.27831036E-02 -0.29570242E-02
 -0.21317112E-02 -0.99779007E-03  0.53695135E-03
 -0.31686286E-02 -0.28582321E-02 -0.62394836E-03
  0.34594779E-02  0.16903666E-02  0.14650848E-03
  0.40382803E-03  0.23830985E-02 -0.51739741E-03
 -0.36450917E-03  0.98255716E-03 -0.75943603E-03
  0.39021653E-02  0.29519217E-02  0.70575738E-04
  0.75787004E-03  0.57801416E-02 -0.24844770E-03
  0.36992687E-02  0.35132757E-02  0.23294518E-02
 -0.37584970E-02 -0.37458488E-02 -0.56684852E-02
  0.24262914E-02  0.62874096E-03  0.35347415E-02
  0.21761321E-02 -0.14053038E-02  0.34748420E-02
  0.62688987E-02 -0.40818578E-02 -0.30241057E-03
 -0.15444156E-02  0.20829765E-02  0.14486497E-02
  0.61344258E-02 -0.27419017E-02 -0.15695555E-02
  0.95389275E-02  0.64266523E-02 -0.66184914E-02
  0.22822197E-04 -0.18329101E-02  0.19388310E-02
  0.46117294E-02 -0.69286345E-02 -0.16675274E-02
 -0.33867826E-02 -0.20099749E-02  0.68163371E-02
 -0.34509155E-02  0.31560751E-02 -0.91690950E-03
 -0.34190023E-02  0.44569550E-02 -0.27465693E-02
 -0.23558164E-02 -0.18972395E-02  0.65926192E-02
 -0.45840779E-02 -0.78089300E-02  0.46887994E-02
 -0.16981910E-02 -0.45624999E-02 -0.47523428E-02
 -0.98409007E-03 -0.11819564E-02  0.16756758E-02
 -0.17260113E-01 -0.25371434E-01 -0.17326229E-01
  0.62460460E-02  0.68823960E-02  0.61124737E-02
 -0.43169186E-03 -0.15309175E-01 -0.30183749E-01
  0.35551068E-02 -0.14135515E-02 -0.11268747E-01
 -0.20265994E-01 -0.85822550E-02  0.64166968E-02
  0.50065040E-02 -0.94503066E-02  0.62747293E-02
 -0.19187668E-02 -0.73967968E-02  0.16275302E-02
  0.17202904E-02  0.40237416E-02 -0.23400842E-01
  0.10985830E-01 -0.20807099E-01 -0.19209435E-01
 -0.13200642E-01  0.13578505E-01  0.13397791E-02
 -0.30726948E-01  0.71981684E-02  0.11532036E-02
  0.34918603E-02 -0.14892010E-01 -0.10731503E-01
  0.10073773E-01 -0.11203958E-01 -0.16413150E-01
  0.14840226E-01 -0.26139483E-02  0.11672164E-01
  0.66980067E-02 -0.10120738E-01  0.11818796E-01
 -0.68962043E-02  0.15630700E-01  0.94788182E-02
 -0.17106141E-01  0.15526805E-01  0.19945561E-01
  0.72473325E-02  0.22234304E-01 -0.62492079E-02
 -0.77132020E-03  0.19682766E-01 -0.15025075E-01
 -0.46235687E-02 -0.24743619E-02 -0.10811543E-01
 -0.88972195E-02 -0.80309049E-02 -0.26611264E-01
  0.83796033E-02  0.20671243E-01 -0.25065345E-01
  0.68606490E-02 -0.75827893E-02 -0.11523158E-01
 -0.90914798E-02  0.64700687E-02  0.12357605E-01
  0.18233258E-01 -0.80747259E-02  0.34837195E-03
 -0.91067682E-02 -0.52863567E-02  0.15955284E-01
  0.90990190E-02  0.45004211E-02 -0.74298127E-02
  0.87778392E-02 -0.37257472E-02  0.24396390E-01
 -0.99676594E-02  0.18810855E-02  0.26896161E-02
  0.45806120E-02 -0.66431508E-02  0.14559349E-01
  0.10429424E-02 -0.69348604E-03 -0.18819346E-01
  0.75562901E-04 -0.88586215E-02 -0.56570416E-02
  0.26311029E-02  0.12809274E-01  0.95091403E-02
  0.86240443E-02 -0.49834552E-02  0.27328167E-01
  0.33570269E-02 -0.12086469E-01 -0.16029901E-01
 -0.47202611E-02  0.11691668E-01  0.29551429E-02
 -0.17477351E-01  0.12178163E-01 -0.14100316E-02
 -0.14337156E-01 -0.60511106E-02  0.80968185E-02
  0.68107589E-02 -0.23932378E-01  0.10802814E-01
  0.10928696E-01  0.11425281E-02  0.18067989E-01
 -0.33958776E-01 -0.43093164E-02 -0.67486440E-02
  0.15540319E-01 -0.13496440E-01 -0.21346819E-03
  0.16562415E-02 -0.15904335E-01  0.21810815E-01
  0.21331872E-01 -0.19522276E-01 -0.41709564E-02
 -0.62329031E-02  0.28297083E-02 -0.17313337E-01
 -0.60014945E-02  0.11723276E-01 -0.27004190E-02
 -0.57400408E-02 -0.11586369E-02  0.15797954E-02
 -0.20136052E-02  0.46980377E-03  0.79466137E-02
  0.61774977E-02  0.16121115E-02 -0.24783817E-01
 -0.24839575E-02  0.15442091E-02 -0.46660250E-02
 -0.30016385E-01  0.23284230E-01 -0.22891400E-01
 -0.29551649E-02 -0.71608785E-02  0.65513345E-02
  0.16270706E-01  0.36807251E-02  0.32524686E-01
  0.12700452E-02 -0.18080577E-02  0.20365715E-02
 
           1
   2.00000000000000     
 -0.46275303E+00 -0.39419876E-02 -0.36722329E-02 -0.45894592E+00
  0.99465397E-01  0.17848584E+00  0.28085328E+00
  0.88104273E+00  0.81832117E+00  0.70088950E+00
  0.40221474E+00  0.81856732E+00  0.79180938E+00
  0.60490896E+00  0.18849000E+00  0.21156508E+00
  0.91227199E+00  0.67020468E+00  0.22058155E+00
  0.96849128E-01  0.29061367E+00  0.77920810E+00
  0.59070475E+00  0.29848631E+00  0.71712458E+00
  0.41759578E+00  0.70472168E+00  0.28334351E+00
  0.26291361E+00  0.10117925E+00  0.17016756E+00
  0.70586376E+00  0.89815107E+00  0.79418149E+00
  0.77381872E+00  0.40598732E+00  0.79047923E+00
  0.22050046E+00  0.60333716E+00  0.22017194E+00
  0.21636344E+00  0.91061279E+00  0.69489626E+00
  0.79231696E+00  0.11765636E+00  0.31218015E+00
  0.70880009E+00  0.60468433E+00  0.31219650E+00
  0.26529435E+00  0.41177537E+00  0.69769520E+00
  0.19842130E+00  0.30811763E+00  0.10421990E+00
  0.81745037E+00  0.71943126E+00  0.89494950E+00
  0.79904306E+00  0.76749392E+00  0.39790636E+00
  0.18433357E+00  0.22231987E+00  0.59930942E+00
  0.69089872E+00  0.22646334E+00  0.89423223E+00
  0.31395220E+00  0.76095674E+00  0.10976317E+00
  0.28679542E+00  0.72879483E+00  0.62173553E+00
  0.68551381E+00  0.29067462E+00  0.39010919E+00
  0.93191243E+00  0.36254977E+00  0.95658794E+00
  0.52197213E-01  0.65181518E+00  0.39954679E-01
  0.54859811E+00  0.64418562E+00  0.48279298E+00
  0.44540786E+00  0.34177130E+00  0.53345292E+00
  0.43996760E+00  0.16487131E+00  0.17716984E-01
  0.55529347E+00  0.85580743E+00  0.98437150E+00
  0.42317725E-01  0.85782241E+00  0.55563642E+00
  0.96279464E+00  0.15673175E+00  0.47949312E+00
  0.85425575E+00  0.52335414E+00  0.40726038E-01
  0.13607077E+00  0.45041044E+00  0.93637168E+00
  0.14402208E+00  0.34074512E-01  0.43939987E+00
  0.86037303E+00  0.96442860E+00  0.55096874E+00
  0.63985218E+00  0.44296603E+00  0.57595194E+00
  0.35075498E+00  0.52609014E+00  0.44815541E+00
  0.35625260E+00  0.98135608E+00  0.92427827E+00
  0.63660807E+00  0.40677900E-01  0.41708959E-01
  0.25054454E-01  0.44631740E+00  0.16308652E+00
  0.98434724E+00  0.56763355E+00  0.85274435E+00
  0.53677920E+00  0.57918862E-01  0.83346322E+00
  0.45496503E+00  0.96321808E+00  0.14822487E+00
  0.96329297E+00  0.95237608E+00  0.35939718E+00
  0.33641865E-01  0.66013572E-01  0.66153773E+00
  0.45140866E+00  0.53672696E+00  0.64866910E+00
  0.53049529E+00  0.44119815E+00  0.34470080E+00
  0.57942159E+00  0.69370224E+00  0.77138586E+00
  0.41085892E+00  0.28053461E+00  0.21378987E+00
  0.89666850E+00  0.28464172E+00  0.28636479E+00
  0.10893155E+00  0.69256271E+00  0.73040266E+00
  0.40628064E+00  0.20777949E+00  0.72183806E+00
  0.62761268E+00  0.83547776E+00  0.30118665E+00
  0.10879641E+00  0.80525016E+00  0.20685713E+00
  0.88698197E+00  0.19837523E+00  0.77649947E+00
  0.75911876E+00  0.59978592E+00  0.69557672E+00
  0.23569196E+00  0.39728079E+00  0.30825085E+00
  0.27829425E+00  0.88964726E+00  0.32001823E+00
  0.71372930E+00  0.10801706E+00  0.67071709E+00
  0.71165359E+00  0.39850463E+00  0.19287820E+00
  0.28706700E+00  0.61614438E+00  0.81177705E+00
  0.22653093E+00  0.92234872E-01  0.80949209E+00
  0.79105037E+00  0.89971639E+00  0.16441191E+00
  0.69059233E+00  0.77813557E+00  0.58766345E+00
  0.28892207E+00  0.20882272E+00  0.37518452E+00
  0.27644049E+00  0.27527274E+00  0.90427393E+00
  0.67586409E+00  0.71216226E+00  0.11389191E+00
  0.18393041E+00  0.72123348E+00  0.42827237E+00
  0.78904274E+00  0.27693342E+00  0.57622283E+00
  0.79608346E+00  0.22310989E+00  0.97539560E-01
  0.19124865E+00  0.77826889E+00  0.92695481E+00
  0.46367499E+00  0.83244849E+00  0.46440991E+00
  0.54204351E+00  0.15922832E+00  0.50693603E+00
  0.61927765E-01  0.15147199E+00  0.97964506E+00
  0.94874348E+00  0.84371495E+00  0.99690250E+00
  0.95856732E+00  0.65772607E+00  0.54245777E+00
  0.40872879E-01  0.34830307E+00  0.47008559E+00
  0.55528381E+00  0.36177831E+00  0.44057975E-01
  0.44046874E+00  0.65847172E+00  0.96921201E+00
  0.35256624E+00  0.64275884E-01  0.54794983E+00
  0.67104064E+00  0.95969957E+00  0.45738668E+00
  0.64076692E+00  0.54031119E+00  0.94501634E+00
  0.36505975E+00  0.45483906E+00  0.49935876E-01
  0.16119368E+00  0.95843512E+00  0.57582463E-01
  0.84329065E+00  0.25659563E-01  0.92977392E+00
  0.83427302E+00  0.47749065E+00  0.43109293E+00
  0.12921286E+00  0.52253091E+00  0.55907991E+00
  0.54081964E+00  0.94974559E+00  0.64225773E+00
  0.47050524E+00  0.27318886E-01  0.34357324E+00
  0.20193307E-01  0.56314659E+00  0.35536511E+00
  0.97635023E+00  0.44974997E+00  0.64538301E+00
  0.47719955E+00  0.42955601E+00  0.84859478E+00
  0.49544374E+00  0.54404709E+00  0.15110878E+00
  0.96005481E+00  0.74692378E-01  0.14371051E+00
  0.62923600E-01  0.95395742E+00  0.85115147E+00
  0.12552429E+00  0.98273016E+00  0.24331187E+00
  0.88205987E+00  0.21626795E-04  0.72924199E+00
  0.38475959E+00  0.98646238E+00  0.73102405E+00
  0.63178509E+00  0.99984698E+00  0.22419480E+00
  0.86441130E+00  0.48350496E+00  0.25281694E+00
  0.11763982E+00  0.49250935E+00  0.76601704E+00
  0.60054165E+00  0.49754532E+00  0.74468643E+00
  0.36664061E+00  0.51091156E+00  0.26729545E+00
  0.25606460E+00  0.12480640E+00  0.99993503E+00
  0.73131038E+00  0.87251283E+00  0.99039543E+00
  0.74400741E+00  0.40492154E+00  0.30120972E-02
  0.26408192E+00  0.61860970E+00  0.49695847E-04
  0.23363816E+00  0.87533259E+00  0.50732164E+00
  0.74734070E+00  0.13902048E+00  0.48213634E+00
  0.73791048E+00  0.60674157E+00  0.49270031E+00
  0.23854139E+00  0.36109866E+00  0.50714544E+00
  0.34784066E-02  0.25475723E+00  0.12997528E+00
  0.72994829E-02  0.73645354E+00  0.86969406E+00
  0.13341435E-02  0.75066427E+00  0.39216756E+00
  0.99899573E+00  0.24395199E+00  0.63620100E+00
  0.52081424E+00  0.24020326E+00  0.87274722E+00
  0.49344571E+00  0.73969725E+00  0.11203430E+00
  0.50521098E+00  0.76416626E+00  0.62584084E+00
  0.48079684E+00  0.26178947E+00  0.36505776E+00
  0.72676378E-02  0.99156914E+00  0.99915964E+00
  0.51225892E+00  0.57579469E-03  0.48621571E+00
  0.99370036E+00  0.49794508E+00  0.49839619E+00
  0.50359714E+00  0.49462103E+00  0.99745772E+00
  0.74264085E+00  0.24635621E+00  0.24289971E+00
  0.24956516E+00  0.75986990E+00  0.77008186E+00
  0.75938393E+00  0.75260970E+00  0.74110792E+00
  0.24670851E+00  0.24350998E+00  0.23486536E+00
  0.24619937E+00  0.24199785E+00  0.75909649E+00
  0.76255798E+00  0.73392373E+00  0.24713481E+00
  0.26360044E+00  0.74006008E+00  0.26661809E+00
  0.74747375E+00  0.24502190E+00  0.72535141E+00
  0.50075474E+00  0.47952457E+00  0.51459676E+00
  0.99650129E+00  0.51131750E+00  0.65826820E-02
  0.49604662E+00  0.99873313E+00  0.98904396E+00
  0.96707622E-02  0.17260282E-02  0.50197793E+00
  0.26454462E+00  0.58369102E+00  0.61268472E+00
  0.54447034E+00  0.34627747E+00  0.17127540E+00
  0.42180394E+00  0.69391500E+00  0.43905642E+00
  0.55391521E+00  0.16012454E+00  0.66532919E+00
  0.12582519E+00  0.66777940E+00  0.58243825E+00
  0.79270702E+00  0.57048928E+00  0.85087088E+00
  0.64418434E+00  0.17975794E+00  0.31109248E-01
  0.37686704E+00  0.50219463E+00  0.76031463E+00
  0.31264576E+00  0.93331105E+00  0.95242914E-01
  0.25803597E+00  0.38878000E+00  0.98563900E+00
  0.66941809E+00  0.43596785E+00  0.33099603E+00
  0.34212447E+00  0.73834500E-01  0.41300928E+00
  0.41748917E+00  0.34436676E+00  0.67793344E+00
  0.71556733E+00  0.90651650E-01  0.91901865E+00
  0.62731216E+00  0.53898995E+00  0.20075345E+00
  0.90990072E+00  0.39404844E+00  0.82326517E+00
  0.82163790E+00  0.92776728E+00  0.40687551E+00
  0.85481581E+00  0.30184904E+00  0.42633772E+00
  0.69286380E+00  0.92543504E+00  0.59283804E+00
  0.95103622E+00  0.13669067E+00  0.30552967E+00
  0.43923068E+00  0.66774256E+00  0.83847497E+00
  0.25972374E-01  0.36035797E+00  0.32461083E+00
  0.73415515E-01  0.60874958E+00  0.20692223E+00
  0.79889343E+00  0.45309991E+00  0.66088952E+00
  0.98560879E+00  0.75078487E+00  0.12372270E+00
  0.37678598E+00  0.82024979E+00  0.93928229E+00
  0.65801796E+00  0.80974330E+00  0.44958732E+00
  0.41680557E+00  0.20163031E+00  0.57372900E+00
  0.91751519E+00  0.60236080E+00  0.71086979E+00
  0.44532856E-02  0.20150666E+00  0.83514361E+00
  0.48529897E+00  0.83131611E+00  0.31079429E+00
  0.84402664E+00  0.83104733E+00  0.53442594E+00
  0.85638359E+00  0.18771911E+00  0.96913512E+00
  0.75746899E+00  0.61350025E+00  0.59814804E-01
  0.15401751E+00  0.43480672E+00  0.19847290E+00
  0.83107882E+00  0.65860993E-01  0.98955725E-01
  0.47313934E+00  0.16332482E+00  0.15730187E+00
  0.39613042E+00  0.30620663E+00  0.85639868E-01
  0.37651238E+00  0.97197813E+00  0.27655152E+00
  0.13788940E+00  0.80469691E+00  0.69224855E-01