LLZO_Ia3d_Al10_partial_34               
   1.00000000000000     
    12.9652004242000007    0.0000000000000000    0.0000000000000000
     0.0000000000000000   12.9650001526000000    0.0000000000000000
     0.0000000000000000    0.0000000000000000   12.9650001526000000
   O    La   Zr   Li   Al
    96    24    16    53     1
Direct
  0.0971304378753938  0.1939072980445756  0.2751944347350543
  0.8976220487548483  0.8067127501482466  0.7118279691187197
  0.3918153880738272  0.8125550564877673  0.7635065451741192
  0.6026139708743455  0.1926433000681207  0.2100213593538804
  0.8977191378342703  0.6888910210396723  0.2271875074815277
  0.0983746203841445  0.3044665673000811  0.7873828432034522
  0.6006642427652696  0.2973154152296532  0.7251787101850508
  0.4000007300313378  0.6875767106777055  0.2792743184412800
  0.2811016703865116  0.0931874855611449  0.1939345254212150
  0.7269703400050216  0.8989973923130556  0.8109233897921833
  0.7913592726808913  0.4016231073399346  0.8010287873492281
  0.2153953697431962  0.5978087452171558  0.1943201392547744
  0.2037095532082871  0.9071325988882633  0.6967837039786881
  0.7888709993719435  0.1017028448391991  0.3035793785401854
  0.7184803669297168  0.5937605890159950  0.3074959016492763
  0.2754945874609156  0.3982425818479029  0.6888792445408678
  0.1949177500583032  0.2842118414469754  0.0954423714864951
  0.8009765576661695  0.7149827693870678  0.8994247267025316
  0.8000207221891449  0.7817369225171242  0.4055453776350154
  0.1886275436259364  0.2226816507365706  0.5987317439508145
  0.7036407168901134  0.2209082267797830  0.9025430852422205
  0.3081969801121096  0.7833004718400454  0.1067619633962530
  0.2880802515054013  0.7171082409117028  0.5983959226505120
  0.6912189591157563  0.2849539476994816  0.3919632743489541
  0.9518282378340970  0.3515550411680865  0.9720950959126580
  0.0571360979204466  0.6557778356121297  0.0330635794354406
  0.5588874937816424  0.6459662131565418  0.4686414258293678
  0.4451252728518149  0.3470017718168900  0.5342029045768237
  0.4484359899432246  0.1422035733676966  0.0358585021416903
  0.5558671591149449  0.8418128435365798  0.9725874294611054
  0.0588571651309852  0.8546805161953948  0.5260771702992620
  0.9514630046176695  0.1552206052330017  0.4687417639035536
  0.8474608254795505  0.5293998114197423  0.0520834035656358
  0.1505258326141465  0.4665844990506466  0.9534706458244634
  0.1493668900276645  0.0359058351143700  0.4355007530648361
  0.8497502030091202  0.9715861396992008  0.5513708020316164
  0.6465644903118253  0.4614140002663061  0.5610331374647807
  0.3487764667570152  0.5202146534870068  0.4428908291913746
  0.3548868117363480  0.9656646941405412  0.9356292045820299
  0.6569009599927687  0.0290145286907648  0.0478630577223638
  0.0324323320877336  0.4520001149148113  0.1546766109973417
  0.9678337725808726  0.5573435867596844  0.8534593180585894
  0.5388558932919488  0.0589097523238862  0.8504360967921165
  0.4728086196389277  0.9464711983479948  0.1522098862601141
  0.9637714338821662  0.9483680341754618  0.3507967303004898
  0.0311390816946953  0.0562745627576978  0.6508368235252213
  0.4602587860498498  0.5521875728702362  0.6516337239665153
  0.5315246230934946  0.4484845482358533  0.3481159211820710
  0.6005878593811163  0.6866537997151753  0.7680979393015501
  0.4017085964570966  0.3047905304746833  0.2239386578807795
  0.9030594932419175  0.3021192563530573  0.2802863130473032
  0.0908858589790323  0.7000720558191486  0.7178191193630172
  0.3984222443801538  0.1904686891309591  0.7228925259631698
  0.5985897462951307  0.8036121859379725  0.2905233847438111
  0.0980264164793337  0.7961467554335981  0.2125605014246797
  0.9022551682918807  0.1973607315370939  0.7861276066534810
  0.7930216041372079  0.6013132174603552  0.6966397182378106
  0.2112540499404236  0.3939951883156081  0.2962082425987534
  0.2820257039439710  0.9010242682894540  0.3031783528251800
  0.7189527781487913  0.0994264876868852  0.6947324256117420
  0.7194689911902667  0.4032371447718927  0.1960867784985232
  0.2736373417555644  0.6043947120468038  0.7980134189571141
  0.2066770112464723  0.0959498853009460  0.7986435678348229
  0.7771021947132805  0.8963594757840126  0.1919107722739212
  0.6971534743820160  0.7829576493690790  0.5972306714538884
  0.3006817997666594  0.2122210349810862  0.3966204007989884
  0.3043008617693652  0.2687027197112601  0.8971702485801666
  0.6886452968637987  0.7123423097427531  0.1095028096044635
  0.1884009663228203  0.7257762960594107  0.4004437641744223
  0.8055705747480819  0.2818073325816418  0.5971585061840992
  0.8032777632555135  0.2204492744095888  0.0948167281855629
  0.1944567114040969  0.7838819623439154  0.9038465351869822
  0.4467872529528926  0.8552385561580929  0.4653416415900156
  0.5560353781932573  0.1565477602594230  0.5324751268339757
  0.0624589045263832  0.1509055636076491  0.9750701640213019
  0.9501224219684791  0.8527701891876582  0.0172670436371122
  0.9468342204038316  0.6518075273198624  0.5283073604620961
  0.0550891155172900  0.3511995686461825  0.4643200137184162
  0.5599297811237841  0.3522097483199363  0.0343908408438808
  0.4448298172121578  0.6489051241282358  0.9560235684481596
  0.3545959976421474  0.0338692540989810  0.5549382997445479
  0.6560296867190402  0.9727646767573040  0.4452794008729945
  0.6518364093501531  0.5380393205187209  0.9416196165438664
  0.3516280872826263  0.4772882880839163  0.0581480052189752
  0.1531408380891829  0.9599401807657358  0.0447302292931941
  0.8518483853018679  0.0342987366204802  0.9435205253649098
  0.8512269378953636  0.4598764649937400  0.4580363939879608
  0.1529757098230810  0.5356421098063490  0.5593402117534565
  0.5394389523331551  0.9500368986573079  0.6453853319073064
  0.4705798839072107  0.0544793020856551  0.3451807474585699
  0.0246089063637161  0.5584808166718863  0.3520717332839280
  0.9732391084096929  0.4412407209169241  0.6512718064014884
  0.4748290194136757  0.4432674831608168  0.8467592770808882
  0.5320462000214141  0.5504292479669214  0.1506252247133237
  0.9647136710047778  0.0559485493771111  0.1443353448477234
  0.0427129411417502  0.9575051002919397  0.8383666485682716
  0.1192451054987994  0.9957527610731584  0.2470391918538657
  0.8679228824419740  1.0002271620221030  0.7489350975980933
  0.3815543356080565  0.0011372693650535  0.7467121484598768
  0.6318345923339114 -0.0004174365644991  0.2486990742203298
  0.8799222096232828  0.5022216825878750  0.2498605685790757
  0.1274096094839388  0.4957436724611248  0.7556713732649403
  0.6289173546897754  0.4994700101341787  0.7492159114823462
  0.3733467701201487  0.4986451913939356  0.2489163271944881
  0.2549414417630567  0.1265213353436616  0.0023976198724018
  0.7505778858048640  0.8660868675854321  1.0010209258922396
  0.7491041453046549  0.3802713788669976  0.0005393896427328
  0.2536102735870969  0.6228118394060814  0.9982581756075134
  0.2509444815665442  0.8759930721497032  0.4961129984953995
  0.7519772948332689  0.1319008964117960  0.4977558265402013
  0.7497200213440642  0.6196101818831475  0.5005616737600465
  0.2488874291319317  0.3732288423784542  0.4967043278752996
 -0.0000728538017565  0.2495792644243103  0.1208436303362967
  0.9953543415383758  0.7436489355854289  0.8781352962965674
  0.9992910614351571  0.7504265735157409  0.3745533555892618
  0.0047742665503337  0.2523866263823336  0.6230880323163817
  0.4958044163636315  0.2516881929884690  0.8773172149826513
  0.5013011241145406  0.7480900851668212  0.1310568542021432
  0.4982249154561416  0.7496942655752529  0.6258440031048762
  0.5010208299129013  0.2512021185813174  0.3689623323380412
  1.0006103220150053  0.0036149029597486  0.9993310061014569
  0.5010014824671342  0.0038422961315670  0.4989082755551202
  0.0063029066941287  0.5048105559357854  0.5005625073489874
  0.4989893275219089  0.4997337531346842  0.9972499941606459
  0.7512366601097935  0.2496066790816271  0.2458050421335688
  0.2441379848524307  0.7518487139108480  0.7504367782627351
  0.7456375378815396  0.7513222662735313  0.7493151327446527
  0.2524423441387690  0.2482835649357871  0.2448086306187447
  0.2506913711785497  0.2520608079810742  0.7460680762562351
  0.7510394236142116  0.7496313723314437  0.2530385690140274
  0.2513688099675641  0.7446844885492274  0.2547797663261926
  0.7504764341292605  0.2507143195543821  0.7503562462740544
  0.4950913095537721  0.4993539994794590  0.5007326359135663
  0.9991869330117003  0.5040988416416197  0.0053809424236462
  0.5036245396821747  0.9940021500692687  0.9958312338575692
  0.0029097412312321  1.0001944265605385  0.4954267276224589
  0.9372389534122355  0.6659063761663694  0.6681239909628222
  0.8525589148591112  0.1813450673587234  0.9328815406055370
  0.1229573289417095  0.6816455380347620  0.5738476444712687
  0.5741904646741530  0.1395449866202257  0.6805109377804303
  0.8323587439775901  0.4233332697777777  0.6138835992199417
  0.5792813254335414  0.3110596823426631  0.5855358359857614
  0.8096682228608865  0.0760088517900655  0.0848766332272863
  0.4151120408048963  0.5788198266224187  0.8085201662887948
  0.1186944161445828  0.8143198383937603  0.0678793231656650
  0.1745198615464336  0.4289901772515486  0.1313587848633473
  0.6738123628934037  0.4388450100036836  0.3360013590799467
  0.3279643632838021  0.9354604953039641  0.1645268141719050
  0.3126390932273468  0.5679670818226091  0.6425033056270028
  0.6896144569751506  0.0765135055947421  0.9048842867249014
  0.6740851933265385  0.5626695519016391  0.1621509075441809
  0.9383041945642748  0.3404030673875624  0.8310171007586955
  0.6495567204719516  0.8239728203907009  0.4349213296416924
  0.0647840332896868  0.3439962080526972  0.3182799110539811
  0.6876151250107453  0.9284147661538230  0.5895794335779416
  0.8110752390473251  0.9270400579168584  0.4094497141292491
  0.1768359215476195  0.9260097069483095  0.8962912378458594
  0.1022125703382225  0.1840914338014522  0.4193382122284410
  0.0744208703831087  0.6358282893287431  0.1750226593405636
  0.4186734380055201  0.2035307513149017  0.5821010429770238
  0.8198086492525041  0.5724011533142369  0.8786125600539504
  0.4350961472537363  0.7952091547734864  0.8983146880220659
  0.5738015975248070  0.5971611433111267  0.3197263576805643
  0.3222502916278929  0.0665990748403291  0.3473843948656460
  0.9097967548236017  0.3179256640424167  0.4244050559816889
  0.1111513384534907  0.3217347668466830  0.9346835833692627
  0.4300644906252182  0.9059634072104273  0.3167790290676629
  0.8502246062985581  0.8226557122434532  0.5636194651807790
  0.0412971199187214  0.1778504593028236  0.8394780367634164
  0.8877239003590081  0.5017722273037448  0.7481993163385998
  0.1423474887262240  0.5178254087335205  0.2910797703805359
  0.9358752208867424  0.1539281720392177  0.3234680877509492
  0.6486141365791545  0.1760704920723921  0.0629418987102559
  0.5748186324963587  0.4041728367136475  0.1803052783489767
  0.4855999473840300  0.2560940494165166  0.1178390059091633
  0.7500357224297960  0.6313259476239362  0.0128368699310704
  0.4300086751085749  0.0909011261747586  0.1842889350133950
  0.6185826144213550  0.9756825875828979  0.7626389695485295
  0.2602612099659584  0.6266355448379007  0.4755790666590894
  0.2472908555111322  0.1217342980631489  0.5134321842402746
  0.5834906202627773  0.6914179102147532  0.9107447559248292
  0.8780450190062868  0.9872523491566370  0.2404714809514167
  0.0361555033636273  0.8246810104009779  0.6616914644118714
  0.4842537337841677  0.7410419638186938  0.3837575147677534
  0.4182888109114378  0.4091296250912418  0.6991120617628925
  0.2762787107460461  0.8671291986190680  0.0020269549978294
  0.9625229292180274  0.7632810703683496  0.1269870154706040
  0.7377548696829858  0.3701040623964534  0.4940286532686666
  0.2774556667912921  0.3754591675290175  0.9894493651798524
  0.1232100951362710  0.0088165010941681  0.7367438313558760
