ISMEAR = 0
SIGMA = 0.2
EDIFF = 1E-6
EDIFFG = -1E-2
PREC = Accurate
ENCUT = 500
IBRION = 1
ISIF = 2
LREAL = Auto
ISYM = 0
NSW = 20
NCORE = 20
LWAVE = .FALSE.
LCHARG = .FALSE.
